generated by phonopy                    
   1.01500000000000     
     7.8401590486790500    0.0000000000000000    0.0000000000000000
     0.0000000000000000    7.8401590486790500    0.0000000000000000
     0.0000000000000000    0.0000000000000000   12.3727018063995349
   Bi   Se   O    S 
    16     7    16     1
Direct
  0.2489853562928338  0.2489853562928338  0.8520761402107285
  0.7510146437071662  0.2489853562928338  0.8520761402107285
  0.2489853562928338  0.7510146437071662  0.8520761402107285
  0.7510146437071662  0.7510146437071662  0.8520761402107285
  1.0000000000000000  0.0000000000000000  0.6488845529654026
  0.5000000000000000  0.0000000000000000  0.6497229865616890
  0.0000000000000000  0.5000000000000000  0.6497229865616890
  0.5000000000000000  0.5000000000000000  0.6506743592027415
  0.0000000000000000  0.0000000000000000  0.3511154470345974
  0.5000000000000000  0.0000000000000000  0.3502770134383109
  0.0000000000000000  0.5000000000000000  0.3502770134383109
  0.5000000000000000  0.5000000000000000  0.3493256407972585
  0.2489853562928338  0.2489853562928338  0.1479238597892714
  0.7510146437071662  0.2489853562928338  0.1479238597892714
  0.2489853562928338  0.7510146437071662  0.1479238597892714
  0.7510146437071662  0.7510146437071662  0.1479238597892714
  0.5000000000000000  0.0000000000000000  0.0000000000000000
  1.0000000000000000  0.5000000000000000  0.0000000000000000
  0.5000000000000000  0.5000000000000000  0.0000000000000000
  0.2497903013310801  0.2497903013310801  0.5000000000000000
  0.7502096986689200  0.2497903013310801  0.5000000000000000
  0.2497903013310801  0.7502096986689200  0.5000000000000000
  0.7502096986689200  0.7502096986689200  0.5000000000000000
  0.0000000000000000  0.2496431546480673  0.7505853107786052
  0.5000000000000000  0.2497799398477719  0.7512855228883675
  0.0000000000000000  0.7503568453519327  0.7505853107786052
  0.5000000000000000  0.7502200601522282  0.7512855228883675
  0.2496431546480673  0.0000000000000000  0.7505853107786052
  0.7503568453519327  0.0000000000000000  0.7505853107786052
  0.2497799398477719  0.5000000000000000  0.7512855228883675
  0.7502200601522282  0.5000000000000000  0.7512855228883675
  0.2496431546480673  0.0000000000000000  0.2494146892213947
  0.7503568453519327  0.0000000000000000  0.2494146892213947
  0.2497799398477719  0.5000000000000000  0.2487144771116324
  0.7502200601522282  0.5000000000000000  0.2487144771116324
  0.0000000000000000  0.2496431546480673  0.2494146892213947
  0.5000000000000000  0.2497799398477719  0.2487144771116324
  0.0000000000000000  0.7503568453519327  0.2494146892213947
  0.5000000000000000  0.7502200601522282  0.2487144771116324
  0.0000000000000000  0.0000000000000000  0.0000000000000000
 
  0.00000000E+00  0.00000000E+00  0.00000000E+00
  0.00000000E+00  0.00000000E+00  0.00000000E+00
  0.00000000E+00  0.00000000E+00  0.00000000E+00
  0.00000000E+00  0.00000000E+00  0.00000000E+00
  0.00000000E+00  0.00000000E+00  0.00000000E+00
  0.00000000E+00  0.00000000E+00  0.00000000E+00
  0.00000000E+00  0.00000000E+00  0.00000000E+00
  0.00000000E+00  0.00000000E+00  0.00000000E+00
  0.00000000E+00  0.00000000E+00  0.00000000E+00
  0.00000000E+00  0.00000000E+00  0.00000000E+00
  0.00000000E+00  0.00000000E+00  0.00000000E+00
  0.00000000E+00  0.00000000E+00  0.00000000E+00
  0.00000000E+00  0.00000000E+00  0.00000000E+00
  0.00000000E+00  0.00000000E+00  0.00000000E+00
  0.00000000E+00  0.00000000E+00  0.00000000E+00
  0.00000000E+00  0.00000000E+00  0.00000000E+00
  0.00000000E+00  0.00000000E+00  0.00000000E+00
  0.00000000E+00  0.00000000E+00  0.00000000E+00
  0.00000000E+00  0.00000000E+00  0.00000000E+00
  0.00000000E+00  0.00000000E+00  0.00000000E+00
  0.00000000E+00  0.00000000E+00  0.00000000E+00
  0.00000000E+00  0.00000000E+00  0.00000000E+00
  0.00000000E+00  0.00000000E+00  0.00000000E+00
  0.00000000E+00  0.00000000E+00  0.00000000E+00
  0.00000000E+00  0.00000000E+00  0.00000000E+00
  0.00000000E+00  0.00000000E+00  0.00000000E+00
  0.00000000E+00  0.00000000E+00  0.00000000E+00
  0.00000000E+00  0.00000000E+00  0.00000000E+00
  0.00000000E+00  0.00000000E+00  0.00000000E+00
  0.00000000E+00  0.00000000E+00  0.00000000E+00
  0.00000000E+00  0.00000000E+00  0.00000000E+00
  0.00000000E+00  0.00000000E+00  0.00000000E+00
  0.00000000E+00  0.00000000E+00  0.00000000E+00
  0.00000000E+00  0.00000000E+00  0.00000000E+00
  0.00000000E+00  0.00000000E+00  0.00000000E+00
  0.00000000E+00  0.00000000E+00  0.00000000E+00
  0.00000000E+00  0.00000000E+00  0.00000000E+00
  0.00000000E+00  0.00000000E+00  0.00000000E+00
  0.00000000E+00  0.00000000E+00  0.00000000E+00
  0.00000000E+00  0.00000000E+00  0.00000000E+00
