      PREC = Accurate
    IBRION = 2
       NSW = 100
    NELMIN = 5

      ISIF = 2
     ENCUT = 520
     EDIFF = 1.000000e-08
    EDIFFG = -1.000000e-5
    ISMEAR = 0
     SIGMA = 0.05
     IALGO = 38
     LREAL = .FALSE.
   ADDGRID = .TRUE.
     LWAVE = .FALSE.
    LCHARG = .FALSE.
      NCORE = 9
      #IVDW =  10
      #GGA = PS
