generated by phonopy                    
   1.01500000000000     
     7.8401590486790491    0.0000000000000000    0.0000000000000000
     0.0000000000000000    7.8401590486790491    0.0000000000000000
     0.0000000000000000    0.0000000000000000   12.3727018063995349
   Bi   Se   O    S 
    16     7    16     1
Direct
  0.2489853519548634  0.2489853519548634  0.8520761137768725
  0.7510146480451366  0.2489853519548634  0.8520761137768725
  0.2489853519548634  0.7510146480451366  0.8520761137768725
  0.7510146480451366  0.7510146480451366  0.8520761137768725
  0.0000000000000000  1.0000000000000000  0.6488845591681349
  0.5000000000000000  1.0000000000000000  0.6497229702518993
  0.0000000000000000  0.5000000000000000  0.6497229702518993
  0.5000000000000000  0.5000000000000000  0.6506743053018592
  0.0000000000000000  1.0000000000000000  0.3511154408318652
  0.5000000000000000  1.0000000000000000  0.3502770297481008
  0.0000000000000000  0.5000000000000000  0.3502770297481008
  0.5000000000000000  0.5000000000000000  0.3493256946981410
  0.2489853519548634  0.2489853519548634  0.1479238862231276
  0.7510146480451366  0.2489853519548634  0.1479238862231276
  0.2489853519548634  0.7510146480451366  0.1479238862231276
  0.7510146480451366  0.7510146480451366  0.1479238862231276
  0.5000000000000000  1.0000000000000000  0.0000000000000000
  0.0000000000000000  0.5000000000000000  0.0000000000000000
  0.5000000000000000  0.5000000000000000  0.0000000000000000
  0.2497903073566219  0.2497903073566219  0.5000000000000000
  0.7502096926433782  0.2497903073566219  0.5000000000000000
  0.2497903073566219  0.7502096926433782  0.5000000000000000
  0.7502096926433782  0.7502096926433782  0.5000000000000000
  0.0000000000000000  0.2496431407506040  0.7505853103788896
  0.5000000000000000  0.2497799135515013  0.7512855357887720
  0.0000000000000000  0.7503568592493961  0.7505853103788896
  0.5000000000000000  0.7502200864484990  0.7512855357887720
  0.2496431407506040  1.0000000000000000  0.7505853103788896
  0.7503568592493961  1.0000000000000000  0.7505853103788896
  0.2497799135515013  0.5000000000000000  0.7512855357887720
  0.7502200864484990  0.5000000000000000  0.7512855357887720
  0.2496431407506040  1.0000000000000000  0.2494146896211104
  0.7503568592493961  1.0000000000000000  0.2494146896211104
  0.2497799135515013  0.5000000000000000  0.2487144642112279
  0.7502200864484990  0.5000000000000000  0.2487144642112279
  0.0000000000000000  0.2496431407506040  0.2494146896211104
  0.5000000000000000  0.2497799135515013  0.2487144642112279
  0.0000000000000000  0.7503568592493961  0.2494146896211104
  0.5000000000000000  0.7502200864484990  0.2487144642112279
  0.0000000000000000  1.0000000000000000  0.0000000000000000
 
  0.00000000E+00  0.00000000E+00  0.00000000E+00
  0.00000000E+00  0.00000000E+00  0.00000000E+00
  0.00000000E+00  0.00000000E+00  0.00000000E+00
  0.00000000E+00  0.00000000E+00  0.00000000E+00
  0.00000000E+00  0.00000000E+00  0.00000000E+00
  0.00000000E+00  0.00000000E+00  0.00000000E+00
  0.00000000E+00  0.00000000E+00  0.00000000E+00
  0.00000000E+00  0.00000000E+00  0.00000000E+00
  0.00000000E+00  0.00000000E+00  0.00000000E+00
  0.00000000E+00  0.00000000E+00  0.00000000E+00
  0.00000000E+00  0.00000000E+00  0.00000000E+00
  0.00000000E+00  0.00000000E+00  0.00000000E+00
  0.00000000E+00  0.00000000E+00  0.00000000E+00
  0.00000000E+00  0.00000000E+00  0.00000000E+00
  0.00000000E+00  0.00000000E+00  0.00000000E+00
  0.00000000E+00  0.00000000E+00  0.00000000E+00
  0.00000000E+00  0.00000000E+00  0.00000000E+00
  0.00000000E+00  0.00000000E+00  0.00000000E+00
  0.00000000E+00  0.00000000E+00  0.00000000E+00
  0.00000000E+00  0.00000000E+00  0.00000000E+00
  0.00000000E+00  0.00000000E+00  0.00000000E+00
  0.00000000E+00  0.00000000E+00  0.00000000E+00
  0.00000000E+00  0.00000000E+00  0.00000000E+00
  0.00000000E+00  0.00000000E+00  0.00000000E+00
  0.00000000E+00  0.00000000E+00  0.00000000E+00
  0.00000000E+00  0.00000000E+00  0.00000000E+00
  0.00000000E+00  0.00000000E+00  0.00000000E+00
  0.00000000E+00  0.00000000E+00  0.00000000E+00
  0.00000000E+00  0.00000000E+00  0.00000000E+00
  0.00000000E+00  0.00000000E+00  0.00000000E+00
  0.00000000E+00  0.00000000E+00  0.00000000E+00
  0.00000000E+00  0.00000000E+00  0.00000000E+00
  0.00000000E+00  0.00000000E+00  0.00000000E+00
  0.00000000E+00  0.00000000E+00  0.00000000E+00
  0.00000000E+00  0.00000000E+00  0.00000000E+00
  0.00000000E+00  0.00000000E+00  0.00000000E+00
  0.00000000E+00  0.00000000E+00  0.00000000E+00
  0.00000000E+00  0.00000000E+00  0.00000000E+00
  0.00000000E+00  0.00000000E+00  0.00000000E+00
  0.00000000E+00  0.00000000E+00  0.00000000E+00
