generated by phonopy                    
  0.980000000000000     
     7.8401590486790473    0.0000000000000000    0.0000000000000000
     0.0000000000000000    7.8401590486790473    0.0000000000000000
     0.0000000000000000    0.0000000000000000   12.3727018063995349
   Bi   Se   O    S 
    16     7    16     1
Direct
  0.2487668672768512  0.2487668672768512  0.8570785651245969
  0.7512331327231487  0.2487668672768512  0.8570785651245969
  0.2487668672768512  0.7512331327231487  0.8570785651245969
  0.7512331327231487  0.7512331327231487  0.8570785651245969
  1.0000000000000000  0.0000000000000000  0.6438208677270211
  0.5000000000000000  0.0000000000000000  0.6446874620793590
  1.0000000000000000  0.5000000000000000  0.6446874620793590
  0.5000000000000000  0.5000000000000000  0.6456399379105010
  1.0000000000000000  0.0000000000000000  0.3561791322729788
  0.5000000000000000  0.0000000000000000  0.3553125379206405
  1.0000000000000000  0.5000000000000000  0.3553125379206405
  0.5000000000000000  0.5000000000000000  0.3543600620894993
  0.2487668672768512  0.2487668672768512  0.1429214348754033
  0.7512331327231487  0.2487668672768512  0.1429214348754033
  0.2487668672768512  0.7512331327231487  0.1429214348754033
  0.7512331327231487  0.7512331327231487  0.1429214348754033
  0.5000000000000000  0.0000000000000000  0.0000000000000000
  1.0000000000000000  0.5000000000000000  0.0000000000000000
  0.5000000000000000  0.5000000000000000  0.0000000000000000
  0.2503885033215045  0.2503885033215045  0.5000000000000000
  0.7496114966784955  0.2503885033215045  0.5000000000000000
  0.2503885033215045  0.7496114966784955  0.5000000000000000
  0.7496114966784955  0.7496114966784955  0.5000000000000000
  1.0000000000000000  0.2494323172092850  0.7503160541254038
  0.5000000000000000  0.2495655908079090  0.7515190399601718
  1.0000000000000000  0.7505676827907148  0.7503160541254038
  0.5000000000000000  0.7504344091920910  0.7515190399601718
  0.2494323172092850  0.0000000000000000  0.7503160541254038
  0.7505676827907148  0.0000000000000000  0.7503160541254038
  0.2495655908079090  0.5000000000000000  0.7515190399601718
  0.7504344091920910  0.5000000000000000  0.7515190399601718
  0.2494323172092850  0.0000000000000000  0.2496839458745961
  0.7505676827907148  0.0000000000000000  0.2496839458745961
  0.2495655908079090  0.5000000000000000  0.2484809600398281
  0.7504344091920910  0.5000000000000000  0.2484809600398281
  1.0000000000000000  0.2494323172092850  0.2496839458745961
  0.5000000000000000  0.2495655908079090  0.2484809600398281
  1.0000000000000000  0.7505676827907148  0.2496839458745961
  0.5000000000000000  0.7504344091920910  0.2484809600398281
  1.0000000000000000  0.0000000000000000  0.0000000000000000
 
  0.00000000E+00  0.00000000E+00  0.00000000E+00
  0.00000000E+00  0.00000000E+00  0.00000000E+00
  0.00000000E+00  0.00000000E+00  0.00000000E+00
  0.00000000E+00  0.00000000E+00  0.00000000E+00
  0.00000000E+00  0.00000000E+00  0.00000000E+00
  0.00000000E+00  0.00000000E+00  0.00000000E+00
  0.00000000E+00  0.00000000E+00  0.00000000E+00
  0.00000000E+00  0.00000000E+00  0.00000000E+00
  0.00000000E+00  0.00000000E+00  0.00000000E+00
  0.00000000E+00  0.00000000E+00  0.00000000E+00
  0.00000000E+00  0.00000000E+00  0.00000000E+00
  0.00000000E+00  0.00000000E+00  0.00000000E+00
  0.00000000E+00  0.00000000E+00  0.00000000E+00
  0.00000000E+00  0.00000000E+00  0.00000000E+00
  0.00000000E+00  0.00000000E+00  0.00000000E+00
  0.00000000E+00  0.00000000E+00  0.00000000E+00
  0.00000000E+00  0.00000000E+00  0.00000000E+00
  0.00000000E+00  0.00000000E+00  0.00000000E+00
  0.00000000E+00  0.00000000E+00  0.00000000E+00
  0.00000000E+00  0.00000000E+00  0.00000000E+00
  0.00000000E+00  0.00000000E+00  0.00000000E+00
  0.00000000E+00  0.00000000E+00  0.00000000E+00
  0.00000000E+00  0.00000000E+00  0.00000000E+00
  0.00000000E+00  0.00000000E+00  0.00000000E+00
  0.00000000E+00  0.00000000E+00  0.00000000E+00
  0.00000000E+00  0.00000000E+00  0.00000000E+00
  0.00000000E+00  0.00000000E+00  0.00000000E+00
  0.00000000E+00  0.00000000E+00  0.00000000E+00
  0.00000000E+00  0.00000000E+00  0.00000000E+00
  0.00000000E+00  0.00000000E+00  0.00000000E+00
  0.00000000E+00  0.00000000E+00  0.00000000E+00
  0.00000000E+00  0.00000000E+00  0.00000000E+00
  0.00000000E+00  0.00000000E+00  0.00000000E+00
  0.00000000E+00  0.00000000E+00  0.00000000E+00
  0.00000000E+00  0.00000000E+00  0.00000000E+00
  0.00000000E+00  0.00000000E+00  0.00000000E+00
  0.00000000E+00  0.00000000E+00  0.00000000E+00
  0.00000000E+00  0.00000000E+00  0.00000000E+00
  0.00000000E+00  0.00000000E+00  0.00000000E+00
  0.00000000E+00  0.00000000E+00  0.00000000E+00
