generated by phonopy                    
0.980
     7.8401590486790473    0.0000000000000000    0.0000000000000000
     0.0000000000000000    7.8401590486790473    0.0000000000000000
     0.0000000000000000    0.0000000000000000   12.3727018063995349
   Bi   Se   O    S 
    16     7    16     1
Direct
  0.2489110798152655  0.2489110798152655  0.8542818625705028
  0.7510889201847343  0.2489110798152655  0.8542818625705028
  0.2489110798152655  0.7510889201847343  0.8542818625705028
  0.7510889201847343  0.7510889201847343  0.8542818625705028
  0.0000000000000000  0.0000000000000000  0.6467176368166938
  0.5000000000000000  0.0000000000000000  0.6475158692330348
  0.0000000000000000  0.5000000000000000  0.6475158692330348
  0.5000000000000000  0.5000000000000000  0.6484172999881810
  0.0000000000000000  0.0000000000000000  0.3532823631833064
  0.5000000000000000  0.0000000000000000  0.3524841307669654
  0.0000000000000000  0.5000000000000000  0.3524841307669654
  0.5000000000000000  0.5000000000000000  0.3515827000118192
  0.2489110798152655  0.2489110798152655  0.1457181374294973
  0.7510889201847343  0.2489110798152655  0.1457181374294973
  0.2489110798152655  0.7510889201847343  0.1457181374294973
  0.7510889201847343  0.7510889201847343  0.1457181374294973
  0.5000000000000000  0.0000000000000000  0.0000000000000000
  0.0000000000000000  0.5000000000000000  0.0000000000000000
  0.5000000000000000  0.5000000000000000  0.0000000000000000
  0.2501376395359932  0.2501376395359932  0.5000000000000000
  0.7498623604640067  0.2501376395359932  0.5000000000000000
  0.2501376395359932  0.7498623604640067  0.5000000000000000
  0.7498623604640067  0.7498623604640067  0.5000000000000000
  0.0000000000000000  0.2495351776370784  0.7504735018702714
  0.5000000000000000  0.2496701850924526  0.7513937767915331
  0.0000000000000000  0.7504648223629219  0.7504735018702714
  0.5000000000000000  0.7503298149075477  0.7513937767915331
  0.2495351776370784  0.0000000000000000  0.7504735018702714
  0.7504648223629219  0.0000000000000000  0.7504735018702714
  0.2496701850924526  0.5000000000000000  0.7513937767915331
  0.7503298149075477  0.5000000000000000  0.7513937767915331
  0.2495351776370784  0.0000000000000000  0.2495264981297289
  0.7504648223629219  0.0000000000000000  0.2495264981297289
  0.2496701850924526  0.5000000000000000  0.2486062232084668
  0.7503298149075477  0.5000000000000000  0.2486062232084668
  0.0000000000000000  0.2495351776370784  0.2495264981297289
  0.5000000000000000  0.2496701850924526  0.2486062232084668
  0.0000000000000000  0.7504648223629219  0.2495264981297289
  0.5000000000000000  0.7503298149075477  0.2486062232084668
  0.0000000000000000  0.0000000000000000  0.0000000000000000
 
  0.00000000E+00  0.00000000E+00  0.00000000E+00
  0.00000000E+00  0.00000000E+00  0.00000000E+00
  0.00000000E+00  0.00000000E+00  0.00000000E+00
  0.00000000E+00  0.00000000E+00  0.00000000E+00
  0.00000000E+00  0.00000000E+00  0.00000000E+00
  0.00000000E+00  0.00000000E+00  0.00000000E+00
  0.00000000E+00  0.00000000E+00  0.00000000E+00
  0.00000000E+00  0.00000000E+00  0.00000000E+00
  0.00000000E+00  0.00000000E+00  0.00000000E+00
  0.00000000E+00  0.00000000E+00  0.00000000E+00
  0.00000000E+00  0.00000000E+00  0.00000000E+00
  0.00000000E+00  0.00000000E+00  0.00000000E+00
  0.00000000E+00  0.00000000E+00  0.00000000E+00
  0.00000000E+00  0.00000000E+00  0.00000000E+00
  0.00000000E+00  0.00000000E+00  0.00000000E+00
  0.00000000E+00  0.00000000E+00  0.00000000E+00
  0.00000000E+00  0.00000000E+00  0.00000000E+00
  0.00000000E+00  0.00000000E+00  0.00000000E+00
  0.00000000E+00  0.00000000E+00  0.00000000E+00
  0.00000000E+00  0.00000000E+00  0.00000000E+00
  0.00000000E+00  0.00000000E+00  0.00000000E+00
  0.00000000E+00  0.00000000E+00  0.00000000E+00
  0.00000000E+00  0.00000000E+00  0.00000000E+00
  0.00000000E+00  0.00000000E+00  0.00000000E+00
  0.00000000E+00  0.00000000E+00  0.00000000E+00
  0.00000000E+00  0.00000000E+00  0.00000000E+00
  0.00000000E+00  0.00000000E+00  0.00000000E+00
  0.00000000E+00  0.00000000E+00  0.00000000E+00
  0.00000000E+00  0.00000000E+00  0.00000000E+00
  0.00000000E+00  0.00000000E+00  0.00000000E+00
  0.00000000E+00  0.00000000E+00  0.00000000E+00
  0.00000000E+00  0.00000000E+00  0.00000000E+00
  0.00000000E+00  0.00000000E+00  0.00000000E+00
  0.00000000E+00  0.00000000E+00  0.00000000E+00
  0.00000000E+00  0.00000000E+00  0.00000000E+00
  0.00000000E+00  0.00000000E+00  0.00000000E+00
  0.00000000E+00  0.00000000E+00  0.00000000E+00
  0.00000000E+00  0.00000000E+00  0.00000000E+00
  0.00000000E+00  0.00000000E+00  0.00000000E+00
  0.00000000E+00  0.00000000E+00  0.00000000E+00
