generated by phonopy                    
   1.02000000000000     
     7.8401590486790473    0.0000000000000000    0.0000000000000000
     0.0000000000000000    7.8401590486790473    0.0000000000000000
     0.0000000000000000    0.0000000000000000   12.3727018063995349
   Bi   Se   O    S 
    16     7    16     1
Direct
  0.2489943981499650  0.2489943981499650  0.8513262725457643
  0.7510056018500352  0.2489943981499650  0.8513262725457643
  0.2489943981499650  0.7510056018500352  0.8513262725457643
  0.7510056018500352  0.7510056018500352  0.8513262725457643
  0.0000000000000000  0.0000000000000000  0.6495723521962238
  0.5000000000000000  0.0000000000000000  0.6504762182560784
  0.0000000000000000  0.5000000000000000  0.6504762182560784
  0.5000000000000000  0.5000000000000000  0.6514941751984948
  0.0000000000000000  0.0000000000000000  0.3504276478037764
  0.5000000000000000  0.0000000000000000  0.3495237817439211
  0.0000000000000000  0.5000000000000000  0.3495237817439211
  0.5000000000000000  0.5000000000000000  0.3485058248015055
  0.2489943981499650  0.2489943981499650  0.1486737274542354
  0.7510056018500352  0.2489943981499650  0.1486737274542354
  0.2489943981499650  0.7510056018500352  0.1486737274542354
  0.7510056018500352  0.7510056018500352  0.1486737274542354
  0.5000000000000000  0.0000000000000000  0.0000000000000000
  0.0000000000000000  0.5000000000000000  0.0000000000000000
  0.5000000000000000  0.5000000000000000  0.0000000000000000
  0.2495784086610229  0.2495784086610229  0.5000000000000000
  0.7504215913389772  0.2495784086610229  0.5000000000000000
  0.2495784086610229  0.7504215913389772  0.5000000000000000
  0.7504215913389772  0.7504215913389772  0.5000000000000000
  0.0000000000000000  0.2497007761255352  0.7506289449365032
  0.5000000000000000  0.2498374604212482  0.7512450418016964
  0.0000000000000000  0.7502992238744642  0.7506289449365032
  0.5000000000000000  0.7501625395787517  0.7512450418016964
  0.2497007761255352  0.0000000000000000  0.7506289449365032
  0.7502992238744642  0.0000000000000000  0.7506289449365032
  0.2498374604212482  0.5000000000000000  0.7512450418016964
  0.7501625395787517  0.5000000000000000  0.7512450418016964
  0.2497007761255352  0.0000000000000000  0.2493710550634965
  0.7502992238744642  0.0000000000000000  0.2493710550634965
  0.2498374604212482  0.5000000000000000  0.2487549581983033
  0.7501625395787517  0.5000000000000000  0.2487549581983033
  0.0000000000000000  0.2497007761255352  0.2493710550634965
  0.5000000000000000  0.2498374604212482  0.2487549581983033
  0.0000000000000000  0.7502992238744642  0.2493710550634965
  0.5000000000000000  0.7501625395787517  0.2487549581983033
  0.0000000000000000  0.0000000000000000  0.0000000000000000
 
  0.00000000E+00  0.00000000E+00  0.00000000E+00
  0.00000000E+00  0.00000000E+00  0.00000000E+00
  0.00000000E+00  0.00000000E+00  0.00000000E+00
  0.00000000E+00  0.00000000E+00  0.00000000E+00
  0.00000000E+00  0.00000000E+00  0.00000000E+00
  0.00000000E+00  0.00000000E+00  0.00000000E+00
  0.00000000E+00  0.00000000E+00  0.00000000E+00
  0.00000000E+00  0.00000000E+00  0.00000000E+00
  0.00000000E+00  0.00000000E+00  0.00000000E+00
  0.00000000E+00  0.00000000E+00  0.00000000E+00
  0.00000000E+00  0.00000000E+00  0.00000000E+00
  0.00000000E+00  0.00000000E+00  0.00000000E+00
  0.00000000E+00  0.00000000E+00  0.00000000E+00
  0.00000000E+00  0.00000000E+00  0.00000000E+00
  0.00000000E+00  0.00000000E+00  0.00000000E+00
  0.00000000E+00  0.00000000E+00  0.00000000E+00
  0.00000000E+00  0.00000000E+00  0.00000000E+00
  0.00000000E+00  0.00000000E+00  0.00000000E+00
  0.00000000E+00  0.00000000E+00  0.00000000E+00
  0.00000000E+00  0.00000000E+00  0.00000000E+00
  0.00000000E+00  0.00000000E+00  0.00000000E+00
  0.00000000E+00  0.00000000E+00  0.00000000E+00
  0.00000000E+00  0.00000000E+00  0.00000000E+00
  0.00000000E+00  0.00000000E+00  0.00000000E+00
  0.00000000E+00  0.00000000E+00  0.00000000E+00
  0.00000000E+00  0.00000000E+00  0.00000000E+00
  0.00000000E+00  0.00000000E+00  0.00000000E+00
  0.00000000E+00  0.00000000E+00  0.00000000E+00
  0.00000000E+00  0.00000000E+00  0.00000000E+00
  0.00000000E+00  0.00000000E+00  0.00000000E+00
  0.00000000E+00  0.00000000E+00  0.00000000E+00
  0.00000000E+00  0.00000000E+00  0.00000000E+00
  0.00000000E+00  0.00000000E+00  0.00000000E+00
  0.00000000E+00  0.00000000E+00  0.00000000E+00
  0.00000000E+00  0.00000000E+00  0.00000000E+00
  0.00000000E+00  0.00000000E+00  0.00000000E+00
  0.00000000E+00  0.00000000E+00  0.00000000E+00
  0.00000000E+00  0.00000000E+00  0.00000000E+00
  0.00000000E+00  0.00000000E+00  0.00000000E+00
  0.00000000E+00  0.00000000E+00  0.00000000E+00
