generated by phonopy                    
  0.960000000000000     
     7.8401590486790473    0.0000000000000000    0.0000000000000000
     0.0000000000000000    7.8401590486790473    0.0000000000000000
     0.0000000000000000    0.0000000000000000   12.3727018063995420
   Bi   Se   O    S 
    16     7    16     1
Direct
  0.2486062013729976  0.2486062013729976  0.8596899981923442
  0.7513937986270025  0.2486062013729976  0.8596899981923442
  0.2486062013729976  0.7513937986270025  0.8596899981923442
  0.7513937986270025  0.7513937986270025  0.8596899981923442
  0.0000000000000000  1.0000000000000000  0.6410351548024610
  0.5000000000000000  1.0000000000000000  0.6419984314366685
  1.0000000000000000  0.5000000000000000  0.6419984314366685
  0.5000000000000000  0.5000000000000000  0.6430354127202292
  1.0000000000000000  0.0000000000000000  0.3589648451975390
  0.5000000000000000  1.0000000000000000  0.3580015685633316
  0.0000000000000000  0.5000000000000000  0.3580015685633316
  0.5000000000000000  0.5000000000000000  0.3569645872797707
  0.2486062013729976  0.2486062013729976  0.1403100018076557
  0.7513937986270025  0.2486062013729976  0.1403100018076557
  0.2486062013729976  0.7513937986270025  0.1403100018076557
  0.7513937986270025  0.7513937986270025  0.1403100018076557
  0.5000000000000000  1.0000000000000000  1.0000000000000000
  0.0000000000000000  0.5000000000000000  1.0000000000000000
  0.5000000000000000  0.5000000000000000  0.0000000000000000
  0.2505546067786723  0.2505546067786723  0.5000000000000000
  0.7494453932213277  0.2505546067786723  0.5000000000000000
  0.2505546067786723  0.7494453932213277  0.5000000000000000
  0.7494453932213277  0.7494453932213277  0.5000000000000000
  0.0000000000000000  0.2493487257609739  0.7501423845226900
  0.5000000000000000  0.2494796233586673  0.7516197074698051
  1.0000000000000000  0.7506512742390261  0.7501423845226900
  0.5000000000000000  0.7505203766413328  0.7516197074698051
  0.2493487257609739  0.0000000000000000  0.7501423845226900
  0.7506512742390261  0.0000000000000000  0.7501423845226900
  0.2494796233586673  0.5000000000000000  0.7516197074698051
  0.7505203766413328  0.5000000000000000  0.7516197074698051
  0.2493487257609739  1.0000000000000000  0.2498576154773100
  0.7506512742390261  1.0000000000000000  0.2498576154773100
  0.2494796233586673  0.5000000000000000  0.2483802925301948
  0.7505203766413328  0.5000000000000000  0.2483802925301948
  0.0000000000000000  0.2493487257609739  0.2498576154773100
  0.5000000000000000  0.2494796233586673  0.2483802925301948
  1.0000000000000000  0.7506512742390261  0.2498576154773100
  0.5000000000000000  0.7505203766413328  0.2483802925301948
  1.0000000000000000  1.0000000000000000  1.0000000000000000
 
  0.00000000E+00  0.00000000E+00  0.00000000E+00
  0.00000000E+00  0.00000000E+00  0.00000000E+00
  0.00000000E+00  0.00000000E+00  0.00000000E+00
  0.00000000E+00  0.00000000E+00  0.00000000E+00
  0.00000000E+00  0.00000000E+00  0.00000000E+00
  0.00000000E+00  0.00000000E+00  0.00000000E+00
  0.00000000E+00  0.00000000E+00  0.00000000E+00
  0.00000000E+00  0.00000000E+00  0.00000000E+00
  0.00000000E+00  0.00000000E+00  0.00000000E+00
  0.00000000E+00  0.00000000E+00  0.00000000E+00
  0.00000000E+00  0.00000000E+00  0.00000000E+00
  0.00000000E+00  0.00000000E+00  0.00000000E+00
  0.00000000E+00  0.00000000E+00  0.00000000E+00
  0.00000000E+00  0.00000000E+00  0.00000000E+00
  0.00000000E+00  0.00000000E+00  0.00000000E+00
  0.00000000E+00  0.00000000E+00  0.00000000E+00
  0.00000000E+00  0.00000000E+00  0.00000000E+00
  0.00000000E+00  0.00000000E+00  0.00000000E+00
  0.00000000E+00  0.00000000E+00  0.00000000E+00
  0.00000000E+00  0.00000000E+00  0.00000000E+00
  0.00000000E+00  0.00000000E+00  0.00000000E+00
  0.00000000E+00  0.00000000E+00  0.00000000E+00
  0.00000000E+00  0.00000000E+00  0.00000000E+00
  0.00000000E+00  0.00000000E+00  0.00000000E+00
  0.00000000E+00  0.00000000E+00  0.00000000E+00
  0.00000000E+00  0.00000000E+00  0.00000000E+00
  0.00000000E+00  0.00000000E+00  0.00000000E+00
  0.00000000E+00  0.00000000E+00  0.00000000E+00
  0.00000000E+00  0.00000000E+00  0.00000000E+00
  0.00000000E+00  0.00000000E+00  0.00000000E+00
  0.00000000E+00  0.00000000E+00  0.00000000E+00
  0.00000000E+00  0.00000000E+00  0.00000000E+00
  0.00000000E+00  0.00000000E+00  0.00000000E+00
  0.00000000E+00  0.00000000E+00  0.00000000E+00
  0.00000000E+00  0.00000000E+00  0.00000000E+00
  0.00000000E+00  0.00000000E+00  0.00000000E+00
  0.00000000E+00  0.00000000E+00  0.00000000E+00
  0.00000000E+00  0.00000000E+00  0.00000000E+00
  0.00000000E+00  0.00000000E+00  0.00000000E+00
  0.00000000E+00  0.00000000E+00  0.00000000E+00
