generated by phonopy                    
  0.960000000000000     
     7.8401590486790473    0.0000000000000000    0.0000000000000000
     0.0000000000000000    7.8401590486790473    0.0000000000000000
     0.0000000000000000    0.0000000000000000   12.3727018063995402
   Bi   Se   O    S 
    16     7    16     1
Direct
  0.2486061808045367  0.2486061808045367  0.8596899797425155
  0.7513938191954633  0.2486061808045367  0.8596899797425155
  0.2486061808045367  0.7513938191954633  0.8596899797425155
  0.7513938191954633  0.7513938191954633  0.8596899797425155
  0.0000000000000000  0.0000000000000000  0.6410350783535694
  0.5000000000000000  0.0000000000000000  0.6419983676270745
  0.0000000000000000  0.5000000000000000  0.6419983676270745
  0.5000000000000000  0.5000000000000000  0.6430353681010593
  0.0000000000000000  0.0000000000000000  0.3589649216464307
  0.5000000000000000  0.0000000000000000  0.3580016323729258
  0.0000000000000000  0.5000000000000000  0.3580016323729258
  0.5000000000000000  0.5000000000000000  0.3569646318989406
  0.2486061808045367  0.2486061808045367  0.1403100202574844
  0.7513938191954633  0.2486061808045367  0.1403100202574844
  0.2486061808045367  0.7513938191954633  0.1403100202574844
  0.7513938191954633  0.7513938191954633  0.1403100202574844
  0.5000000000000000  0.0000000000000000  0.0000000000000000
  0.0000000000000000  0.5000000000000000  0.0000000000000000
  0.5000000000000000  0.5000000000000000  0.0000000000000000
  0.2505546095759345  0.2505546095759345  0.5000000000000000
  0.7494453904240657  0.2505546095759345  0.5000000000000000
  0.2505546095759345  0.7494453904240657  0.5000000000000000
  0.7494453904240657  0.7494453904240657  0.5000000000000000
  0.0000000000000000  0.2493487171479850  0.7501423891098760
  0.5000000000000000  0.2494796149828399  0.7516197138747999
  0.0000000000000000  0.7506512828520150  0.7501423891098760
  0.5000000000000000  0.7505203850171601  0.7516197138747999
  0.2493487171479850  0.0000000000000000  0.7501423891098760
  0.7506512828520150  0.0000000000000000  0.7501423891098760
  0.2494796149828399  0.5000000000000000  0.7516197138747999
  0.7505203850171601  0.5000000000000000  0.7516197138747999
  0.2493487171479850  0.0000000000000000  0.2498576108901241
  0.7506512828520150  0.0000000000000000  0.2498576108901241
  0.2494796149828399  0.5000000000000000  0.2483802861252004
  0.7505203850171601  0.5000000000000000  0.2483802861252004
  0.0000000000000000  0.2493487171479850  0.2498576108901241
  0.5000000000000000  0.2494796149828399  0.2483802861252004
  0.0000000000000000  0.7506512828520150  0.2498576108901241
  0.5000000000000000  0.7505203850171601  0.2483802861252004
  0.0000000000000000  0.0000000000000000  0.0000000000000000
 
  0.00000000E+00  0.00000000E+00  0.00000000E+00
  0.00000000E+00  0.00000000E+00  0.00000000E+00
  0.00000000E+00  0.00000000E+00  0.00000000E+00
  0.00000000E+00  0.00000000E+00  0.00000000E+00
  0.00000000E+00  0.00000000E+00  0.00000000E+00
  0.00000000E+00  0.00000000E+00  0.00000000E+00
  0.00000000E+00  0.00000000E+00  0.00000000E+00
  0.00000000E+00  0.00000000E+00  0.00000000E+00
  0.00000000E+00  0.00000000E+00  0.00000000E+00
  0.00000000E+00  0.00000000E+00  0.00000000E+00
  0.00000000E+00  0.00000000E+00  0.00000000E+00
  0.00000000E+00  0.00000000E+00  0.00000000E+00
  0.00000000E+00  0.00000000E+00  0.00000000E+00
  0.00000000E+00  0.00000000E+00  0.00000000E+00
  0.00000000E+00  0.00000000E+00  0.00000000E+00
  0.00000000E+00  0.00000000E+00  0.00000000E+00
  0.00000000E+00  0.00000000E+00  0.00000000E+00
  0.00000000E+00  0.00000000E+00  0.00000000E+00
  0.00000000E+00  0.00000000E+00  0.00000000E+00
  0.00000000E+00  0.00000000E+00  0.00000000E+00
  0.00000000E+00  0.00000000E+00  0.00000000E+00
  0.00000000E+00  0.00000000E+00  0.00000000E+00
  0.00000000E+00  0.00000000E+00  0.00000000E+00
  0.00000000E+00  0.00000000E+00  0.00000000E+00
  0.00000000E+00  0.00000000E+00  0.00000000E+00
  0.00000000E+00  0.00000000E+00  0.00000000E+00
  0.00000000E+00  0.00000000E+00  0.00000000E+00
  0.00000000E+00  0.00000000E+00  0.00000000E+00
  0.00000000E+00  0.00000000E+00  0.00000000E+00
  0.00000000E+00  0.00000000E+00  0.00000000E+00
  0.00000000E+00  0.00000000E+00  0.00000000E+00
  0.00000000E+00  0.00000000E+00  0.00000000E+00
  0.00000000E+00  0.00000000E+00  0.00000000E+00
  0.00000000E+00  0.00000000E+00  0.00000000E+00
  0.00000000E+00  0.00000000E+00  0.00000000E+00
  0.00000000E+00  0.00000000E+00  0.00000000E+00
  0.00000000E+00  0.00000000E+00  0.00000000E+00
  0.00000000E+00  0.00000000E+00  0.00000000E+00
  0.00000000E+00  0.00000000E+00  0.00000000E+00
  0.00000000E+00  0.00000000E+00  0.00000000E+00
