generated by phonopy                    
   1.04000000000000     
     7.8401590486790473    0.0000000000000000    0.0000000000000000
     0.0000000000000000    7.8401590486790473    0.0000000000000000
     0.0000000000000000    0.0000000000000000   12.3727018063995260
   Bi   Se   O    S 
    16     7    16     1
Direct
  0.2468740994559075  0.2468740994559075  0.8492430026801114
  0.7531259005440923  0.2468740994559075  0.8492430026801114
  0.2468740994559075  0.7531259005440923  0.8492430026801114
  0.7531259005440923  0.7531259005440923  0.8492430026801114
  0.0000000000000000  0.0000000000000000  0.6441580524051452
  0.5000000000000000  0.0000000000000000  0.6557845443344319
  0.0000000000000000  0.5000000000000000  0.6557845443344319
  0.5000000000000000  0.5000000000000000  0.6617421344677840
  0.0000000000000000  0.0000000000000000  0.3558419475948549
  0.5000000000000000  0.0000000000000000  0.3442154556655681
  0.0000000000000000  0.5000000000000000  0.3442154556655681
  0.5000000000000000  0.5000000000000000  0.3382578655322161
  0.2468740994559075  0.2468740994559075  0.1507569973198885
  0.7531259005440923  0.2468740994559075  0.1507569973198885
  0.2468740994559075  0.7531259005440923  0.1507569973198885
  0.7531259005440923  0.7531259005440923  0.1507569973198885
  0.5000000000000000  0.0000000000000000  1.0000000000000000
  0.0000000000000000  0.5000000000000000  1.0000000000000000
  0.5000000000000000  0.5000000000000000  1.0000000000000000
  0.2350758640130940  0.2350758640130940  0.5000000000000000
  0.7649241359869060  0.2350758640130940  0.5000000000000000
  0.2350758640130940  0.7649241359869060  0.5000000000000000
  0.7649241359869060  0.7649241359869060  0.5000000000000000
  1.0000000000000000  0.2539717559850921  0.7528552175776725
  0.5000000000000000  0.2525497460789162  0.7511394130391466
  0.0000000000000000  0.7460282440149080  0.7528552175776725
  0.5000000000000000  0.7474502539210840  0.7511394130391466
  0.2539717559850921  0.0000000000000000  0.7528552175776725
  0.7460282440149080  0.0000000000000000  0.7528552175776725
  0.2525497460789162  0.5000000000000000  0.7511394130391466
  0.7474502539210840  0.5000000000000000  0.7511394130391466
  0.2539717559850921  0.0000000000000000  0.2471447824223275
  0.7460282440149080  0.0000000000000000  0.2471447824223275
  0.2525497460789162  0.5000000000000000  0.2488605869608534
  0.7474502539210840  0.5000000000000000  0.2488605869608534
  0.0000000000000000  0.2539717559850921  0.2471447824223275
  0.5000000000000000  0.2525497460789162  0.2488605869608534
  0.0000000000000000  0.7460282440149080  0.2471447824223275
  0.5000000000000000  0.7474502539210840  0.2488605869608534
  0.0000000000000000  0.0000000000000000  1.0000000000000000
 
  0.00000000E+00  0.00000000E+00  0.00000000E+00
  0.00000000E+00  0.00000000E+00  0.00000000E+00
  0.00000000E+00  0.00000000E+00  0.00000000E+00
  0.00000000E+00  0.00000000E+00  0.00000000E+00
  0.00000000E+00  0.00000000E+00  0.00000000E+00
  0.00000000E+00  0.00000000E+00  0.00000000E+00
  0.00000000E+00  0.00000000E+00  0.00000000E+00
  0.00000000E+00  0.00000000E+00  0.00000000E+00
  0.00000000E+00  0.00000000E+00  0.00000000E+00
  0.00000000E+00  0.00000000E+00  0.00000000E+00
  0.00000000E+00  0.00000000E+00  0.00000000E+00
  0.00000000E+00  0.00000000E+00  0.00000000E+00
  0.00000000E+00  0.00000000E+00  0.00000000E+00
  0.00000000E+00  0.00000000E+00  0.00000000E+00
  0.00000000E+00  0.00000000E+00  0.00000000E+00
  0.00000000E+00  0.00000000E+00  0.00000000E+00
  0.00000000E+00  0.00000000E+00  0.00000000E+00
  0.00000000E+00  0.00000000E+00  0.00000000E+00
  0.00000000E+00  0.00000000E+00  0.00000000E+00
  0.00000000E+00  0.00000000E+00  0.00000000E+00
  0.00000000E+00  0.00000000E+00  0.00000000E+00
  0.00000000E+00  0.00000000E+00  0.00000000E+00
  0.00000000E+00  0.00000000E+00  0.00000000E+00
  0.00000000E+00  0.00000000E+00  0.00000000E+00
  0.00000000E+00  0.00000000E+00  0.00000000E+00
  0.00000000E+00  0.00000000E+00  0.00000000E+00
  0.00000000E+00  0.00000000E+00  0.00000000E+00
  0.00000000E+00  0.00000000E+00  0.00000000E+00
  0.00000000E+00  0.00000000E+00  0.00000000E+00
  0.00000000E+00  0.00000000E+00  0.00000000E+00
  0.00000000E+00  0.00000000E+00  0.00000000E+00
  0.00000000E+00  0.00000000E+00  0.00000000E+00
  0.00000000E+00  0.00000000E+00  0.00000000E+00
  0.00000000E+00  0.00000000E+00  0.00000000E+00
  0.00000000E+00  0.00000000E+00  0.00000000E+00
  0.00000000E+00  0.00000000E+00  0.00000000E+00
  0.00000000E+00  0.00000000E+00  0.00000000E+00
  0.00000000E+00  0.00000000E+00  0.00000000E+00
  0.00000000E+00  0.00000000E+00  0.00000000E+00
  0.00000000E+00  0.00000000E+00  0.00000000E+00
