generated by phonopy                    
   1.04000000000000     
     7.8401590486790473    0.0000000000000000    0.0000000000000000
     0.0000000000000000    7.8401590486790473    0.0000000000000000
     0.0000000000000000    0.0000000000000000   12.3727018063995260
   Bi   Se   O    S 
    16     7    16     1
Direct
  0.2468741620639932  0.2468741620639932  0.8492428739801713
  0.7531258379360067  0.2468741620639932  0.8492428739801713
  0.2468741620639932  0.7531258379360067  0.8492428739801713
  0.7531258379360067  0.7531258379360067  0.8492428739801713
  0.0000000000000000  0.0000000000000000  0.6441581601966881
  0.5000000000000000  0.0000000000000000  0.6557842822801689
  0.0000000000000000  0.5000000000000000  0.6557842822801689
  0.5000000000000000  0.5000000000000000  0.6617419485849233
  0.0000000000000000  0.0000000000000000  0.3558418398033118
  0.5000000000000000  0.0000000000000000  0.3442157177198307
  0.0000000000000000  0.5000000000000000  0.3442157177198307
  0.5000000000000000  0.5000000000000000  0.3382580514150766
  0.2468741620639932  0.2468741620639932  0.1507571260198285
  0.7531258379360067  0.2468741620639932  0.1507571260198285
  0.2468741620639932  0.7531258379360067  0.1507571260198285
  0.7531258379360067  0.7531258379360067  0.1507571260198285
  0.5000000000000000  0.0000000000000000  0.0000000000000000
  0.0000000000000000  0.5000000000000000  0.0000000000000000
  0.5000000000000000  0.5000000000000000  0.0000000000000000
  0.2350766055885599  0.2350766055885599  0.5000000000000000
  0.7649233944114401  0.2350766055885599  0.5000000000000000
  0.2350766055885599  0.7649233944114401  0.5000000000000000
  0.7649233944114401  0.7649233944114401  0.5000000000000000
  0.0000000000000000  0.2539712722877912  0.7528548185140280
  0.5000000000000000  0.2525495354894002  0.7511393372604815
  0.0000000000000000  0.7460287277122091  0.7528548185140280
  0.5000000000000000  0.7474504645105997  0.7511393372604815
  0.2539712722877912  0.0000000000000000  0.7528548185140280
  0.7460287277122091  0.0000000000000000  0.7528548185140280
  0.2525495354894002  0.5000000000000000  0.7511393372604815
  0.7474504645105997  0.5000000000000000  0.7511393372604815
  0.2539712722877912  0.0000000000000000  0.2471451814859720
  0.7460287277122091  0.0000000000000000  0.2471451814859720
  0.2525495354894002  0.5000000000000000  0.2488606627395185
  0.7474504645105997  0.5000000000000000  0.2488606627395185
  0.0000000000000000  0.2539712722877912  0.2471451814859720
  0.5000000000000000  0.2525495354894002  0.2488606627395185
  0.0000000000000000  0.7460287277122091  0.2471451814859720
  0.5000000000000000  0.7474504645105997  0.2488606627395185
  0.0000000000000000  0.0000000000000000  0.0000000000000000
 
  0.00000000E+00  0.00000000E+00  0.00000000E+00
  0.00000000E+00  0.00000000E+00  0.00000000E+00
  0.00000000E+00  0.00000000E+00  0.00000000E+00
  0.00000000E+00  0.00000000E+00  0.00000000E+00
  0.00000000E+00  0.00000000E+00  0.00000000E+00
  0.00000000E+00  0.00000000E+00  0.00000000E+00
  0.00000000E+00  0.00000000E+00  0.00000000E+00
  0.00000000E+00  0.00000000E+00  0.00000000E+00
  0.00000000E+00  0.00000000E+00  0.00000000E+00
  0.00000000E+00  0.00000000E+00  0.00000000E+00
  0.00000000E+00  0.00000000E+00  0.00000000E+00
  0.00000000E+00  0.00000000E+00  0.00000000E+00
  0.00000000E+00  0.00000000E+00  0.00000000E+00
  0.00000000E+00  0.00000000E+00  0.00000000E+00
  0.00000000E+00  0.00000000E+00  0.00000000E+00
  0.00000000E+00  0.00000000E+00  0.00000000E+00
  0.00000000E+00  0.00000000E+00  0.00000000E+00
  0.00000000E+00  0.00000000E+00  0.00000000E+00
  0.00000000E+00  0.00000000E+00  0.00000000E+00
  0.00000000E+00  0.00000000E+00  0.00000000E+00
  0.00000000E+00  0.00000000E+00  0.00000000E+00
  0.00000000E+00  0.00000000E+00  0.00000000E+00
  0.00000000E+00  0.00000000E+00  0.00000000E+00
  0.00000000E+00  0.00000000E+00  0.00000000E+00
  0.00000000E+00  0.00000000E+00  0.00000000E+00
  0.00000000E+00  0.00000000E+00  0.00000000E+00
  0.00000000E+00  0.00000000E+00  0.00000000E+00
  0.00000000E+00  0.00000000E+00  0.00000000E+00
  0.00000000E+00  0.00000000E+00  0.00000000E+00
  0.00000000E+00  0.00000000E+00  0.00000000E+00
  0.00000000E+00  0.00000000E+00  0.00000000E+00
  0.00000000E+00  0.00000000E+00  0.00000000E+00
  0.00000000E+00  0.00000000E+00  0.00000000E+00
  0.00000000E+00  0.00000000E+00  0.00000000E+00
  0.00000000E+00  0.00000000E+00  0.00000000E+00
  0.00000000E+00  0.00000000E+00  0.00000000E+00
  0.00000000E+00  0.00000000E+00  0.00000000E+00
  0.00000000E+00  0.00000000E+00  0.00000000E+00
  0.00000000E+00  0.00000000E+00  0.00000000E+00
  0.00000000E+00  0.00000000E+00  0.00000000E+00
