generated by phonopy                    
  0.990000000000000     
     7.8401590486790500    0.0000000000000000    0.0000000000000000
     0.0000000000000000    7.8401590486790500    0.0000000000000000
     0.0000000000000000    0.0000000000000000   12.3727018063995349
   Bi   Se   O    S 
    16     7    16     1
Direct
  0.2488421232064005  0.2488421232064005  0.8557015514662268
  0.7511578767936068  0.2488421232064005  0.8557015514662268
  0.2488421232064005  0.7511578767936068  0.8557015514662268
  0.7511578767936068  0.7511578767936068  0.8557015514662268
  0.0000000000000000  1.0000000000000000  0.6452609314044749
  0.5000000000000000  0.0000000000000000  0.6460865423152560
  0.0000000000000000  0.5000000000000000  0.6460865423152560
  0.5000000000000000  0.5000000000000000  0.6470054395406442
  0.0000000000000000  1.0000000000000000  0.3547390685955248
  0.5000000000000000  0.0000000000000000  0.3539134576847441
  0.0000000000000000  0.5000000000000000  0.3539134576847441
  0.5000000000000000  0.5000000000000000  0.3529945604593560
  0.2488421232064005  0.2488421232064005  0.1442984485337730
  0.7511578767936068  0.2488421232064005  0.1442984485337730
  0.2488421232064005  0.7511578767936068  0.1442984485337730
  0.7511578767936068  0.7511578767936068  0.1442984485337730
  0.5000000000000000  1.0000000000000000  0.0000000000000000
  1.0000000000000000  0.5000000000000000  0.0000000000000000
  0.5000000000000000  0.5000000000000000  0.0000000000000000
  0.2502777580298972  0.2502777580298972  0.5000000000000000
  0.7497222419701028  0.2502777580298972  0.5000000000000000
  0.2502777580298972  0.7497222419701028  0.5000000000000000
  0.7497222419701028  0.7497222419701028  0.5000000000000000
  0.0000000000000000  0.2494807689030035  0.7503976215947180
  0.5000000000000000  0.2496151874642052  0.7514591169482956
  0.0000000000000000  0.7505192310969965  0.7503976215947180
  0.5000000000000000  0.7503848125357948  0.7514591169482956
  0.2494807689030035  0.0000000000000000  0.7503976215947180
  0.7505192310969965  0.0000000000000000  0.7503976215947180
  0.2496151874642052  0.5000000000000000  0.7514591169482956
  0.7503848125357948  0.5000000000000000  0.7514591169482956
  0.2494807689030035  1.0000000000000000  0.2496023784052820
  0.7505192310969965  0.0000000000000000  0.2496023784052820
  0.2496151874642052  0.5000000000000000  0.2485408830517045
  0.7503848125357948  0.5000000000000000  0.2485408830517045
  0.0000000000000000  0.2494807689030035  0.2496023784052820
  0.5000000000000000  0.2496151874642052  0.2485408830517045
  1.0000000000000000  0.7505192310969965  0.2496023784052820
  0.5000000000000000  0.7503848125357948  0.2485408830517045
  0.0000000000000000  0.0000000000000000  0.0000000000000000
 
  0.00000000E+00  0.00000000E+00  0.00000000E+00
  0.00000000E+00  0.00000000E+00  0.00000000E+00
  0.00000000E+00  0.00000000E+00  0.00000000E+00
  0.00000000E+00  0.00000000E+00  0.00000000E+00
  0.00000000E+00  0.00000000E+00  0.00000000E+00
  0.00000000E+00  0.00000000E+00  0.00000000E+00
  0.00000000E+00  0.00000000E+00  0.00000000E+00
  0.00000000E+00  0.00000000E+00  0.00000000E+00
  0.00000000E+00  0.00000000E+00  0.00000000E+00
  0.00000000E+00  0.00000000E+00  0.00000000E+00
  0.00000000E+00  0.00000000E+00  0.00000000E+00
  0.00000000E+00  0.00000000E+00  0.00000000E+00
  0.00000000E+00  0.00000000E+00  0.00000000E+00
  0.00000000E+00  0.00000000E+00  0.00000000E+00
  0.00000000E+00  0.00000000E+00  0.00000000E+00
  0.00000000E+00  0.00000000E+00  0.00000000E+00
  0.00000000E+00  0.00000000E+00  0.00000000E+00
  0.00000000E+00  0.00000000E+00  0.00000000E+00
  0.00000000E+00  0.00000000E+00  0.00000000E+00
  0.00000000E+00  0.00000000E+00  0.00000000E+00
  0.00000000E+00  0.00000000E+00  0.00000000E+00
  0.00000000E+00  0.00000000E+00  0.00000000E+00
  0.00000000E+00  0.00000000E+00  0.00000000E+00
  0.00000000E+00  0.00000000E+00  0.00000000E+00
  0.00000000E+00  0.00000000E+00  0.00000000E+00
  0.00000000E+00  0.00000000E+00  0.00000000E+00
  0.00000000E+00  0.00000000E+00  0.00000000E+00
  0.00000000E+00  0.00000000E+00  0.00000000E+00
  0.00000000E+00  0.00000000E+00  0.00000000E+00
  0.00000000E+00  0.00000000E+00  0.00000000E+00
  0.00000000E+00  0.00000000E+00  0.00000000E+00
  0.00000000E+00  0.00000000E+00  0.00000000E+00
  0.00000000E+00  0.00000000E+00  0.00000000E+00
  0.00000000E+00  0.00000000E+00  0.00000000E+00
  0.00000000E+00  0.00000000E+00  0.00000000E+00
  0.00000000E+00  0.00000000E+00  0.00000000E+00
  0.00000000E+00  0.00000000E+00  0.00000000E+00
  0.00000000E+00  0.00000000E+00  0.00000000E+00
  0.00000000E+00  0.00000000E+00  0.00000000E+00
  0.00000000E+00  0.00000000E+00  0.00000000E+00
