generated by phonopy                    
  0.990000000000000     
     7.8401590486790491    0.0000000000000000    0.0000000000000000
     0.0000000000000000    7.8401590486790491    0.0000000000000000
     0.0000000000000000    0.0000000000000000   12.3727018063995349
   Bi   Se   O    S 
    16     7    16     1
Direct
  0.2488420655377361  0.2488420655377361  0.8557015558842570
  0.7511579344622712  0.2488420655377361  0.8557015558842570
  0.2488420655377361  0.7511579344622712  0.8557015558842570
  0.7511579344622712  0.7511579344622712  0.8557015558842570
  0.0000000000000000  0.0000000000000000  0.6452608006448706
  0.5000000000000000  0.0000000000000000  0.6460865710671457
  0.0000000000000000  0.5000000000000000  0.6460865710671457
  0.5000000000000000  0.5000000000000000  0.6470056211096130
  0.0000000000000000  0.0000000000000000  0.3547391993551293
  0.5000000000000000  0.0000000000000000  0.3539134289328541
  0.0000000000000000  0.5000000000000000  0.3539134289328541
  0.5000000000000000  0.5000000000000000  0.3529943788903872
  0.2488420655377361  0.2488420655377361  0.1442984441157429
  0.7511579344622712  0.2488420655377361  0.1442984441157429
  0.2488420655377361  0.7511579344622712  0.1442984441157429
  0.7511579344622712  0.7511579344622712  0.1442984441157429
  0.5000000000000000  0.0000000000000000  0.0000000000000000
  0.0000000000000000  0.5000000000000000  0.0000000000000000
  0.5000000000000000  0.5000000000000000  0.0000000000000000
  0.2502777437410367  0.2502777437410367  0.5000000000000000
  0.7497222562589635  0.2502777437410367  0.5000000000000000
  0.2502777437410367  0.7497222562589635  0.5000000000000000
  0.7497222562589635  0.7497222562589635  0.5000000000000000
  0.0000000000000000  0.2494807537568715  0.7503976143778748
  0.5000000000000000  0.2496151699426816  0.7514591449954522
  0.0000000000000000  0.7505192462431285  0.7503976143778748
  0.5000000000000000  0.7503848300573185  0.7514591449954522
  0.2494807537568715  0.0000000000000000  0.7503976143778748
  0.7505192462431285  0.0000000000000000  0.7503976143778748
  0.2496151699426816  0.5000000000000000  0.7514591449954522
  0.7503848300573185  0.5000000000000000  0.7514591449954522
  0.2494807537568715  0.0000000000000000  0.2496023856221253
  0.7505192462431285  0.0000000000000000  0.2496023856221253
  0.2496151699426816  0.5000000000000000  0.2485408550045478
  0.7503848300573185  0.5000000000000000  0.2485408550045478
  0.0000000000000000  0.2494807537568715  0.2496023856221253
  0.5000000000000000  0.2496151699426816  0.2485408550045478
  0.0000000000000000  0.7505192462431285  0.2496023856221253
  0.5000000000000000  0.7503848300573185  0.2485408550045478
  0.0000000000000000  0.0000000000000000  0.0000000000000000
 
  0.00000000E+00  0.00000000E+00  0.00000000E+00
  0.00000000E+00  0.00000000E+00  0.00000000E+00
  0.00000000E+00  0.00000000E+00  0.00000000E+00
  0.00000000E+00  0.00000000E+00  0.00000000E+00
  0.00000000E+00  0.00000000E+00  0.00000000E+00
  0.00000000E+00  0.00000000E+00  0.00000000E+00
  0.00000000E+00  0.00000000E+00  0.00000000E+00
  0.00000000E+00  0.00000000E+00  0.00000000E+00
  0.00000000E+00  0.00000000E+00  0.00000000E+00
  0.00000000E+00  0.00000000E+00  0.00000000E+00
  0.00000000E+00  0.00000000E+00  0.00000000E+00
  0.00000000E+00  0.00000000E+00  0.00000000E+00
  0.00000000E+00  0.00000000E+00  0.00000000E+00
  0.00000000E+00  0.00000000E+00  0.00000000E+00
  0.00000000E+00  0.00000000E+00  0.00000000E+00
  0.00000000E+00  0.00000000E+00  0.00000000E+00
  0.00000000E+00  0.00000000E+00  0.00000000E+00
  0.00000000E+00  0.00000000E+00  0.00000000E+00
  0.00000000E+00  0.00000000E+00  0.00000000E+00
  0.00000000E+00  0.00000000E+00  0.00000000E+00
  0.00000000E+00  0.00000000E+00  0.00000000E+00
  0.00000000E+00  0.00000000E+00  0.00000000E+00
  0.00000000E+00  0.00000000E+00  0.00000000E+00
  0.00000000E+00  0.00000000E+00  0.00000000E+00
  0.00000000E+00  0.00000000E+00  0.00000000E+00
  0.00000000E+00  0.00000000E+00  0.00000000E+00
  0.00000000E+00  0.00000000E+00  0.00000000E+00
  0.00000000E+00  0.00000000E+00  0.00000000E+00
  0.00000000E+00  0.00000000E+00  0.00000000E+00
  0.00000000E+00  0.00000000E+00  0.00000000E+00
  0.00000000E+00  0.00000000E+00  0.00000000E+00
  0.00000000E+00  0.00000000E+00  0.00000000E+00
  0.00000000E+00  0.00000000E+00  0.00000000E+00
  0.00000000E+00  0.00000000E+00  0.00000000E+00
  0.00000000E+00  0.00000000E+00  0.00000000E+00
  0.00000000E+00  0.00000000E+00  0.00000000E+00
  0.00000000E+00  0.00000000E+00  0.00000000E+00
  0.00000000E+00  0.00000000E+00  0.00000000E+00
  0.00000000E+00  0.00000000E+00  0.00000000E+00
  0.00000000E+00  0.00000000E+00  0.00000000E+00
