generated by phonopy                    
  0.970000000000000     
     7.8401590486790491    0.0000000000000000    0.0000000000000000
     0.0000000000000000    7.8401590486790491    0.0000000000000000
     0.0000000000000000    0.0000000000000000   12.3727018063995384
   Bi   Se   O    S 
    16     7    16     1
Direct
  0.2486877866693896  0.2486877866693896  0.8584102327265999
  0.7513122133306103  0.2486877866693896  0.8584102327265999
  0.2486877866693896  0.7513122133306103  0.8584102327265999
  0.7513122133306103  0.7513122133306103  0.8584102327265999
  0.0000000000000000  0.0000000000000000  0.6424084452136731
  0.5000000000000000  0.0000000000000000  0.6433226832074854
  0.0000000000000000  0.5000000000000000  0.6433226832074854
  0.5000000000000000  0.5000000000000000  0.6443163484728530
  0.0000000000000000  0.0000000000000000  0.3575915547863269
  0.5000000000000000  0.0000000000000000  0.3566773167925145
  0.0000000000000000  0.5000000000000000  0.3566773167925145
  0.5000000000000000  0.5000000000000000  0.3556836515271470
  0.2486877866693896  0.2486877866693896  0.1415897672733999
  0.7513122133306103  0.2486877866693896  0.1415897672733999
  0.2486877866693896  0.7513122133306103  0.1415897672733999
  0.7513122133306103  0.7513122133306103  0.1415897672733999
  0.5000000000000000  0.0000000000000000  0.0000000000000000
  0.0000000000000000  0.5000000000000000  0.0000000000000000
  0.5000000000000000  0.5000000000000000  0.0000000000000000
  0.2504789504404791  0.2504789504404791  0.5000000000000000
  0.7495210495595208  0.2504789504404791  0.5000000000000000
  0.2504789504404791  0.7495210495595208  0.5000000000000000
  0.7495210495595208  0.7495210495595208  0.5000000000000000
  0.0000000000000000  0.2493883890679208  0.7502310413711371
  0.5000000000000000  0.2495204841536733  0.7515728153692502
  0.0000000000000000  0.7506116109320792  0.7502310413711371
  0.5000000000000000  0.7504795158463266  0.7515728153692502
  0.2493883890679208  0.0000000000000000  0.7502310413711371
  0.7506116109320792  0.0000000000000000  0.7502310413711371
  0.2495204841536733  0.5000000000000000  0.7515728153692502
  0.7504795158463266  0.5000000000000000  0.7515728153692502
  0.2493883890679208  0.0000000000000000  0.2497689586288631
  0.7506116109320792  0.0000000000000000  0.2497689586288631
  0.2495204841536733  0.5000000000000000  0.2484271846307495
  0.7504795158463266  0.5000000000000000  0.2484271846307495
  0.0000000000000000  0.2493883890679208  0.2497689586288631
  0.5000000000000000  0.2495204841536733  0.2484271846307495
  0.0000000000000000  0.7506116109320792  0.2497689586288631
  0.5000000000000000  0.7504795158463266  0.2484271846307495
  0.0000000000000000  0.0000000000000000  0.0000000000000000
 
  0.00000000E+00  0.00000000E+00  0.00000000E+00
  0.00000000E+00  0.00000000E+00  0.00000000E+00
  0.00000000E+00  0.00000000E+00  0.00000000E+00
  0.00000000E+00  0.00000000E+00  0.00000000E+00
  0.00000000E+00  0.00000000E+00  0.00000000E+00
  0.00000000E+00  0.00000000E+00  0.00000000E+00
  0.00000000E+00  0.00000000E+00  0.00000000E+00
  0.00000000E+00  0.00000000E+00  0.00000000E+00
  0.00000000E+00  0.00000000E+00  0.00000000E+00
  0.00000000E+00  0.00000000E+00  0.00000000E+00
  0.00000000E+00  0.00000000E+00  0.00000000E+00
  0.00000000E+00  0.00000000E+00  0.00000000E+00
  0.00000000E+00  0.00000000E+00  0.00000000E+00
  0.00000000E+00  0.00000000E+00  0.00000000E+00
  0.00000000E+00  0.00000000E+00  0.00000000E+00
  0.00000000E+00  0.00000000E+00  0.00000000E+00
  0.00000000E+00  0.00000000E+00  0.00000000E+00
  0.00000000E+00  0.00000000E+00  0.00000000E+00
  0.00000000E+00  0.00000000E+00  0.00000000E+00
  0.00000000E+00  0.00000000E+00  0.00000000E+00
  0.00000000E+00  0.00000000E+00  0.00000000E+00
  0.00000000E+00  0.00000000E+00  0.00000000E+00
  0.00000000E+00  0.00000000E+00  0.00000000E+00
  0.00000000E+00  0.00000000E+00  0.00000000E+00
  0.00000000E+00  0.00000000E+00  0.00000000E+00
  0.00000000E+00  0.00000000E+00  0.00000000E+00
  0.00000000E+00  0.00000000E+00  0.00000000E+00
  0.00000000E+00  0.00000000E+00  0.00000000E+00
  0.00000000E+00  0.00000000E+00  0.00000000E+00
  0.00000000E+00  0.00000000E+00  0.00000000E+00
  0.00000000E+00  0.00000000E+00  0.00000000E+00
  0.00000000E+00  0.00000000E+00  0.00000000E+00
  0.00000000E+00  0.00000000E+00  0.00000000E+00
  0.00000000E+00  0.00000000E+00  0.00000000E+00
  0.00000000E+00  0.00000000E+00  0.00000000E+00
  0.00000000E+00  0.00000000E+00  0.00000000E+00
  0.00000000E+00  0.00000000E+00  0.00000000E+00
  0.00000000E+00  0.00000000E+00  0.00000000E+00
  0.00000000E+00  0.00000000E+00  0.00000000E+00
  0.00000000E+00  0.00000000E+00  0.00000000E+00
