generated by phonopy                    
  0.970000000000000     
     7.8401590486790482    0.0000000000000000    0.0000000000000000
     0.0000000000000000    7.8401590486790482    0.0000000000000000
     0.0000000000000000    0.0000000000000000   12.3727018063995367
   Bi   Se   O    S 
    16     7    16     1
Direct
  0.2486868244189448  0.2486868244189448  0.8584081036201952
  0.7513131755810550  0.2486868244189448  0.8584081036201952
  0.2486868244189448  0.7513131755810550  0.8584081036201952
  0.7513131755810550  0.7513131755810550  0.8584081036201952
  1.0000000000000000  1.0000000000000000  0.6424045987342436
  0.5000000000000000  1.0000000000000000  0.6433204995063775
  1.0000000000000000  0.5000000000000000  0.6433204995063775
  0.5000000000000000  0.5000000000000000  0.6443154485808557
  1.0000000000000000  1.0000000000000000  0.3575954012657563
  0.5000000000000000  1.0000000000000000  0.3566795004936226
  1.0000000000000000  0.5000000000000000  0.3566795004936226
  0.5000000000000000  0.5000000000000000  0.3556845514191444
  0.2486868244189448  0.2486868244189448  0.1415918963798046
  0.7513131755810550  0.2486868244189448  0.1415918963798046
  0.2486868244189448  0.7513131755810550  0.1415918963798046
  0.7513131755810550  0.7513131755810550  0.1415918963798046
  0.5000000000000000  1.0000000000000000  0.0000000000000000
  1.0000000000000000  0.5000000000000000  0.0000000000000000
  0.5000000000000000  0.5000000000000000  0.0000000000000000
  0.2504739540620640  0.2504739540620640  0.5000000000000000
  0.7495260459379360  0.2504739540620640  0.5000000000000000
  0.2504739540620640  0.7495260459379360  0.5000000000000000
  0.7495260459379360  0.7495260459379360  0.5000000000000000
  1.0000000000000000  0.2493880542002626  0.7502303052060630
  0.5000000000000000  0.2495201197797324  0.7515682019903009
  1.0000000000000000  0.7506119457997374  0.7502303052060630
  0.5000000000000000  0.7504798802202678  0.7515682019903009
  0.2493880542002626  1.0000000000000000  0.7502303052060630
  0.7506119457997374  1.0000000000000000  0.7502303052060630
  0.2495201197797324  0.5000000000000000  0.7515682019903009
  0.7504798802202678  0.5000000000000000  0.7515682019903009
  0.2493880542002626  1.0000000000000000  0.2497696947939371
  0.7506119457997374  1.0000000000000000  0.2497696947939371
  0.2495201197797324  0.5000000000000000  0.2484317980096989
  0.7504798802202678  0.5000000000000000  0.2484317980096989
  1.0000000000000000  0.2493880542002626  0.2497696947939371
  0.5000000000000000  0.2495201197797324  0.2484317980096989
  1.0000000000000000  0.7506119457997374  0.2497696947939371
  0.5000000000000000  0.7504798802202678  0.2484317980096989
  1.0000000000000000  1.0000000000000000  0.0000000000000000
 
  0.00000000E+00  0.00000000E+00  0.00000000E+00
  0.00000000E+00  0.00000000E+00  0.00000000E+00
  0.00000000E+00  0.00000000E+00  0.00000000E+00
  0.00000000E+00  0.00000000E+00  0.00000000E+00
  0.00000000E+00  0.00000000E+00  0.00000000E+00
  0.00000000E+00  0.00000000E+00  0.00000000E+00
  0.00000000E+00  0.00000000E+00  0.00000000E+00
  0.00000000E+00  0.00000000E+00  0.00000000E+00
  0.00000000E+00  0.00000000E+00  0.00000000E+00
  0.00000000E+00  0.00000000E+00  0.00000000E+00
  0.00000000E+00  0.00000000E+00  0.00000000E+00
  0.00000000E+00  0.00000000E+00  0.00000000E+00
  0.00000000E+00  0.00000000E+00  0.00000000E+00
  0.00000000E+00  0.00000000E+00  0.00000000E+00
  0.00000000E+00  0.00000000E+00  0.00000000E+00
  0.00000000E+00  0.00000000E+00  0.00000000E+00
  0.00000000E+00  0.00000000E+00  0.00000000E+00
  0.00000000E+00  0.00000000E+00  0.00000000E+00
  0.00000000E+00  0.00000000E+00  0.00000000E+00
  0.00000000E+00  0.00000000E+00  0.00000000E+00
  0.00000000E+00  0.00000000E+00  0.00000000E+00
  0.00000000E+00  0.00000000E+00  0.00000000E+00
  0.00000000E+00  0.00000000E+00  0.00000000E+00
  0.00000000E+00  0.00000000E+00  0.00000000E+00
  0.00000000E+00  0.00000000E+00  0.00000000E+00
  0.00000000E+00  0.00000000E+00  0.00000000E+00
  0.00000000E+00  0.00000000E+00  0.00000000E+00
  0.00000000E+00  0.00000000E+00  0.00000000E+00
  0.00000000E+00  0.00000000E+00  0.00000000E+00
  0.00000000E+00  0.00000000E+00  0.00000000E+00
  0.00000000E+00  0.00000000E+00  0.00000000E+00
  0.00000000E+00  0.00000000E+00  0.00000000E+00
  0.00000000E+00  0.00000000E+00  0.00000000E+00
  0.00000000E+00  0.00000000E+00  0.00000000E+00
  0.00000000E+00  0.00000000E+00  0.00000000E+00
  0.00000000E+00  0.00000000E+00  0.00000000E+00
  0.00000000E+00  0.00000000E+00  0.00000000E+00
  0.00000000E+00  0.00000000E+00  0.00000000E+00
  0.00000000E+00  0.00000000E+00  0.00000000E+00
  0.00000000E+00  0.00000000E+00  0.00000000E+00
