generated by phonopy                    
   1.03000000000000     
     7.8401590486790473    0.0000000000000000    0.0000000000000000
     0.0000000000000000    7.8401590486790473    0.0000000000000000
     0.0000000000000000    0.0000000000000000   12.3727018063995349
   Bi   Se   O    S 
    16     7    16     1
Direct
  0.2488978345785483  0.2488978345785483  0.8498411182495580
  0.7511021654214514  0.2488978345785483  0.8498411182495580
  0.2488978345785483  0.7511021654214514  0.8498411182495580
  0.7511021654214514  0.7511021654214514  0.8498411182495580
  1.0000000000000000  0.0000000000000000  0.6506319704786310
  0.5000000000000000  0.0000000000000000  0.6520644397805359
  1.0000000000000000  0.5000000000000000  0.6520644397805359
  0.5000000000000000  0.5000000000000000  0.6535718512865452
  1.0000000000000000  0.0000000000000000  0.3493680295213689
  0.5000000000000000  0.0000000000000000  0.3479355602194641
  1.0000000000000000  0.5000000000000000  0.3479355602194641
  0.5000000000000000  0.5000000000000000  0.3464281487134549
  0.2488978345785483  0.2488978345785483  0.1501588817504423
  0.7511021654214514  0.2488978345785483  0.1501588817504423
  0.2488978345785483  0.7511021654214514  0.1501588817504423
  0.7511021654214514  0.7511021654214514  0.1501588817504423
  0.5000000000000000  0.0000000000000000  0.0000000000000000
  1.0000000000000000  0.5000000000000000  0.0000000000000000
  0.5000000000000000  0.5000000000000000  0.0000000000000000
  0.2484489357554489  0.2484489357554489  0.5000000000000000
  0.7515510642445512  0.2484489357554489  0.5000000000000000
  0.2484489357554489  0.7515510642445512  0.5000000000000000
  0.7515510642445512  0.7515510642445512  0.5000000000000000
  1.0000000000000000  0.2499769539095320  0.7507892217608504
  0.5000000000000000  0.2501002577530507  0.7511507989156809
  1.0000000000000000  0.7500230460904681  0.7507892217608504
  0.5000000000000000  0.7498997422469492  0.7511507989156809
  0.2499769539095320  0.0000000000000000  0.7507892217608504
  0.7500230460904681  0.0000000000000000  0.7507892217608504
  0.2501002577530507  0.5000000000000000  0.7511507989156809
  0.7498997422469492  0.5000000000000000  0.7511507989156809
  0.2499769539095320  0.0000000000000000  0.2492107782391496
  0.7500230460904681  0.0000000000000000  0.2492107782391496
  0.2501002577530507  0.5000000000000000  0.2488492010843193
  0.7498997422469492  0.5000000000000000  0.2488492010843193
  1.0000000000000000  0.2499769539095320  0.2492107782391496
  0.5000000000000000  0.2501002577530507  0.2488492010843193
  1.0000000000000000  0.7500230460904681  0.2492107782391496
  0.5000000000000000  0.7498997422469492  0.2488492010843193
  1.0000000000000000  0.0000000000000000  0.0000000000000000
 
  0.00000000E+00  0.00000000E+00  0.00000000E+00
  0.00000000E+00  0.00000000E+00  0.00000000E+00
  0.00000000E+00  0.00000000E+00  0.00000000E+00
  0.00000000E+00  0.00000000E+00  0.00000000E+00
  0.00000000E+00  0.00000000E+00  0.00000000E+00
  0.00000000E+00  0.00000000E+00  0.00000000E+00
  0.00000000E+00  0.00000000E+00  0.00000000E+00
  0.00000000E+00  0.00000000E+00  0.00000000E+00
  0.00000000E+00  0.00000000E+00  0.00000000E+00
  0.00000000E+00  0.00000000E+00  0.00000000E+00
  0.00000000E+00  0.00000000E+00  0.00000000E+00
  0.00000000E+00  0.00000000E+00  0.00000000E+00
  0.00000000E+00  0.00000000E+00  0.00000000E+00
  0.00000000E+00  0.00000000E+00  0.00000000E+00
  0.00000000E+00  0.00000000E+00  0.00000000E+00
  0.00000000E+00  0.00000000E+00  0.00000000E+00
  0.00000000E+00  0.00000000E+00  0.00000000E+00
  0.00000000E+00  0.00000000E+00  0.00000000E+00
  0.00000000E+00  0.00000000E+00  0.00000000E+00
  0.00000000E+00  0.00000000E+00  0.00000000E+00
  0.00000000E+00  0.00000000E+00  0.00000000E+00
  0.00000000E+00  0.00000000E+00  0.00000000E+00
  0.00000000E+00  0.00000000E+00  0.00000000E+00
  0.00000000E+00  0.00000000E+00  0.00000000E+00
  0.00000000E+00  0.00000000E+00  0.00000000E+00
  0.00000000E+00  0.00000000E+00  0.00000000E+00
  0.00000000E+00  0.00000000E+00  0.00000000E+00
  0.00000000E+00  0.00000000E+00  0.00000000E+00
  0.00000000E+00  0.00000000E+00  0.00000000E+00
  0.00000000E+00  0.00000000E+00  0.00000000E+00
  0.00000000E+00  0.00000000E+00  0.00000000E+00
  0.00000000E+00  0.00000000E+00  0.00000000E+00
  0.00000000E+00  0.00000000E+00  0.00000000E+00
  0.00000000E+00  0.00000000E+00  0.00000000E+00
  0.00000000E+00  0.00000000E+00  0.00000000E+00
  0.00000000E+00  0.00000000E+00  0.00000000E+00
  0.00000000E+00  0.00000000E+00  0.00000000E+00
  0.00000000E+00  0.00000000E+00  0.00000000E+00
  0.00000000E+00  0.00000000E+00  0.00000000E+00
  0.00000000E+00  0.00000000E+00  0.00000000E+00
