generated by phonopy                    
   1.03000000000000     
     7.8401590486790473    0.0000000000000000    0.0000000000000000
     0.0000000000000000    7.8401590486790473    0.0000000000000000
     0.0000000000000000    0.0000000000000000   12.3727018063995349
   Bi   Se   O    S 
    16     7    16     1
Direct
  0.2488976519888978  0.2488976519888978  0.8498408241359895
  0.7511023480111020  0.2488976519888978  0.8498408241359895
  0.2488976519888978  0.7511023480111020  0.8498408241359895
  0.7511023480111020  0.7511023480111020  0.8498408241359895
  0.0000000000000000  0.0000000000000000  0.6506310135974107
  0.5000000000000000  0.0000000000000000  0.6520641881119624
  0.0000000000000000  0.5000000000000000  0.6520641881119624
  0.5000000000000000  0.5000000000000000  0.6535721278575145
  0.0000000000000000  0.0000000000000000  0.3493689864025891
  0.5000000000000000  0.0000000000000000  0.3479358118880379
  0.0000000000000000  0.5000000000000000  0.3479358118880379
  0.5000000000000000  0.5000000000000000  0.3464278721424852
  0.2488976519888978  0.2488976519888978  0.1501591758640104
  0.7511023480111020  0.2488976519888978  0.1501591758640104
  0.2488976519888978  0.7511023480111020  0.1501591758640104
  0.7511023480111020  0.7511023480111020  0.1501591758640104
  0.5000000000000000  0.0000000000000000  0.0000000000000000
  0.0000000000000000  0.5000000000000000  0.0000000000000000
  0.5000000000000000  0.5000000000000000  0.0000000000000000
  0.2484465558040870  0.2484465558040870  0.5000000000000000
  0.7515534441959133  0.2484465558040870  0.5000000000000000
  0.2484465558040870  0.7515534441959133  0.5000000000000000
  0.7515534441959133  0.7515534441959133  0.5000000000000000
  0.0000000000000000  0.2499774415023552  0.7507893327259233
  0.5000000000000000  0.2501007282950286  0.7511501697153196
  0.0000000000000000  0.7500225584976447  0.7507893327259233
  0.5000000000000000  0.7498992717049714  0.7511501697153196
  0.2499774415023552  0.0000000000000000  0.7507893327259233
  0.7500225584976447  0.0000000000000000  0.7507893327259233
  0.2501007282950286  0.5000000000000000  0.7511501697153196
  0.7498992717049714  0.5000000000000000  0.7511501697153196
  0.2499774415023552  0.0000000000000000  0.2492106672740770
  0.7500225584976447  0.0000000000000000  0.2492106672740770
  0.2501007282950286  0.5000000000000000  0.2488498302846806
  0.7498992717049714  0.5000000000000000  0.2488498302846806
  0.0000000000000000  0.2499774415023552  0.2492106672740770
  0.5000000000000000  0.2501007282950286  0.2488498302846806
  0.0000000000000000  0.7500225584976447  0.2492106672740770
  0.5000000000000000  0.7498992717049714  0.2488498302846806
  0.0000000000000000  0.0000000000000000  0.0000000000000000
 
  0.00000000E+00  0.00000000E+00  0.00000000E+00
  0.00000000E+00  0.00000000E+00  0.00000000E+00
  0.00000000E+00  0.00000000E+00  0.00000000E+00
  0.00000000E+00  0.00000000E+00  0.00000000E+00
  0.00000000E+00  0.00000000E+00  0.00000000E+00
  0.00000000E+00  0.00000000E+00  0.00000000E+00
  0.00000000E+00  0.00000000E+00  0.00000000E+00
  0.00000000E+00  0.00000000E+00  0.00000000E+00
  0.00000000E+00  0.00000000E+00  0.00000000E+00
  0.00000000E+00  0.00000000E+00  0.00000000E+00
  0.00000000E+00  0.00000000E+00  0.00000000E+00
  0.00000000E+00  0.00000000E+00  0.00000000E+00
  0.00000000E+00  0.00000000E+00  0.00000000E+00
  0.00000000E+00  0.00000000E+00  0.00000000E+00
  0.00000000E+00  0.00000000E+00  0.00000000E+00
  0.00000000E+00  0.00000000E+00  0.00000000E+00
  0.00000000E+00  0.00000000E+00  0.00000000E+00
  0.00000000E+00  0.00000000E+00  0.00000000E+00
  0.00000000E+00  0.00000000E+00  0.00000000E+00
  0.00000000E+00  0.00000000E+00  0.00000000E+00
  0.00000000E+00  0.00000000E+00  0.00000000E+00
  0.00000000E+00  0.00000000E+00  0.00000000E+00
  0.00000000E+00  0.00000000E+00  0.00000000E+00
  0.00000000E+00  0.00000000E+00  0.00000000E+00
  0.00000000E+00  0.00000000E+00  0.00000000E+00
  0.00000000E+00  0.00000000E+00  0.00000000E+00
  0.00000000E+00  0.00000000E+00  0.00000000E+00
  0.00000000E+00  0.00000000E+00  0.00000000E+00
  0.00000000E+00  0.00000000E+00  0.00000000E+00
  0.00000000E+00  0.00000000E+00  0.00000000E+00
  0.00000000E+00  0.00000000E+00  0.00000000E+00
  0.00000000E+00  0.00000000E+00  0.00000000E+00
  0.00000000E+00  0.00000000E+00  0.00000000E+00
  0.00000000E+00  0.00000000E+00  0.00000000E+00
  0.00000000E+00  0.00000000E+00  0.00000000E+00
  0.00000000E+00  0.00000000E+00  0.00000000E+00
  0.00000000E+00  0.00000000E+00  0.00000000E+00
  0.00000000E+00  0.00000000E+00  0.00000000E+00
  0.00000000E+00  0.00000000E+00  0.00000000E+00
  0.00000000E+00  0.00000000E+00  0.00000000E+00
