generated by phonopy                    
   1.02500000000000     
     7.8401590486790473    0.0000000000000000    0.0000000000000000
     0.0000000000000000    7.8401590486790473    0.0000000000000000
     0.0000000000000000    0.0000000000000000   12.3727018063995349
   Bi   Se   O    S 
    16     7    16     1
Direct
  0.2489795040546412  0.2489795040546412  0.8505742736745454
  0.7510204959453517  0.2489795040546412  0.8505742736745454
  0.2489795040546412  0.7510204959453517  0.8505742736745454
  0.7510204959453517  0.7510204959453517  0.8505742736745454
  0.0000000000000000  1.0000000000000000  0.6501984759900036
  0.5000000000000000  1.0000000000000000  0.6512478678210213
  1.0000000000000000  0.5000000000000000  0.6512478678210213
  0.5000000000000000  0.5000000000000000  0.6524075825875009
  1.0000000000000000  1.0000000000000000  0.3498015240099964
  0.5000000000000000  1.0000000000000000  0.3487521321789788
  0.0000000000000000  0.5000000000000000  0.3487521321789788
  0.5000000000000000  0.5000000000000000  0.3475924174124991
  0.2489795040546412  0.2489795040546412  0.1494257263254475
  0.7510204959453517  0.2489795040546412  0.1494257263254475
  0.2489795040546412  0.7510204959453517  0.1494257263254475
  0.7510204959453517  0.7510204959453517  0.1494257263254475
  0.5000000000000000  0.0000000000000000  1.0000000000000000
  1.0000000000000000  0.5000000000000000  1.0000000000000000
  0.5000000000000000  0.5000000000000000  1.0000000000000000
  0.2492227166385916  0.2492227166385916  0.5000000000000000
  0.7507772833614085  0.2492227166385916  0.5000000000000000
  0.2492227166385916  0.7507772833614085  0.5000000000000000
  0.7507772833614085  0.7507772833614085  0.5000000000000000
  1.0000000000000000  0.2497906747874117  0.7506856099191174
  0.5000000000000000  0.2499251861801124  0.7512011261997460
  1.0000000000000000  0.7502093252125882  0.7506856099191174
  0.5000000000000000  0.7500748138198876  0.7512011261997460
  0.2497906747874117  1.0000000000000000  0.7506856099191174
  0.7502093252125882  0.0000000000000000  0.7506856099191174
  0.2499251861801124  0.5000000000000000  0.7512011261997460
  0.7500748138198876  0.5000000000000000  0.7512011261997460
  0.2497906747874117  0.0000000000000000  0.2493143900808826
  0.7502093252125882  1.0000000000000000  0.2493143900808826
  0.2499251861801124  0.5000000000000000  0.2487988738002541
  0.7500748138198876  0.5000000000000000  0.2487988738002541
  1.0000000000000000  0.2497906747874117  0.2493143900808826
  0.5000000000000000  0.2499251861801124  0.2487988738002541
  0.0000000000000000  0.7502093252125882  0.2493143900808826
  0.5000000000000000  0.7500748138198876  0.2487988738002541
  1.0000000000000000  1.0000000000000000  1.0000000000000000
 
  0.00000000E+00  0.00000000E+00  0.00000000E+00
  0.00000000E+00  0.00000000E+00  0.00000000E+00
  0.00000000E+00  0.00000000E+00  0.00000000E+00
  0.00000000E+00  0.00000000E+00  0.00000000E+00
  0.00000000E+00  0.00000000E+00  0.00000000E+00
  0.00000000E+00  0.00000000E+00  0.00000000E+00
  0.00000000E+00  0.00000000E+00  0.00000000E+00
  0.00000000E+00  0.00000000E+00  0.00000000E+00
  0.00000000E+00  0.00000000E+00  0.00000000E+00
  0.00000000E+00  0.00000000E+00  0.00000000E+00
  0.00000000E+00  0.00000000E+00  0.00000000E+00
  0.00000000E+00  0.00000000E+00  0.00000000E+00
  0.00000000E+00  0.00000000E+00  0.00000000E+00
  0.00000000E+00  0.00000000E+00  0.00000000E+00
  0.00000000E+00  0.00000000E+00  0.00000000E+00
  0.00000000E+00  0.00000000E+00  0.00000000E+00
  0.00000000E+00  0.00000000E+00  0.00000000E+00
  0.00000000E+00  0.00000000E+00  0.00000000E+00
  0.00000000E+00  0.00000000E+00  0.00000000E+00
  0.00000000E+00  0.00000000E+00  0.00000000E+00
  0.00000000E+00  0.00000000E+00  0.00000000E+00
  0.00000000E+00  0.00000000E+00  0.00000000E+00
  0.00000000E+00  0.00000000E+00  0.00000000E+00
  0.00000000E+00  0.00000000E+00  0.00000000E+00
  0.00000000E+00  0.00000000E+00  0.00000000E+00
  0.00000000E+00  0.00000000E+00  0.00000000E+00
  0.00000000E+00  0.00000000E+00  0.00000000E+00
  0.00000000E+00  0.00000000E+00  0.00000000E+00
  0.00000000E+00  0.00000000E+00  0.00000000E+00
  0.00000000E+00  0.00000000E+00  0.00000000E+00
  0.00000000E+00  0.00000000E+00  0.00000000E+00
  0.00000000E+00  0.00000000E+00  0.00000000E+00
  0.00000000E+00  0.00000000E+00  0.00000000E+00
  0.00000000E+00  0.00000000E+00  0.00000000E+00
  0.00000000E+00  0.00000000E+00  0.00000000E+00
  0.00000000E+00  0.00000000E+00  0.00000000E+00
  0.00000000E+00  0.00000000E+00  0.00000000E+00
  0.00000000E+00  0.00000000E+00  0.00000000E+00
  0.00000000E+00  0.00000000E+00  0.00000000E+00
  0.00000000E+00  0.00000000E+00  0.00000000E+00
