generated by phonopy                    
   1.02500000000000     
     7.8401590486790473    0.0000000000000000    0.0000000000000000
     0.0000000000000000    7.8401590486790473    0.0000000000000000
     0.0000000000000000    0.0000000000000000   12.3727018063995349
   Bi   Se   O    S 
    16     7    16     1
Direct
  0.2489795340342908  0.2489795340342908  0.8505742738406494
  0.7510204659657022  0.2489795340342908  0.8505742738406494
  0.2489795340342908  0.7510204659657022  0.8505742738406494
  0.7510204659657022  0.7510204659657022  0.8505742738406494
  1.0000000000000000  0.0000000000000000  0.6501985388064214
  0.5000000000000000  0.0000000000000000  0.6512478407596519
  1.0000000000000000  0.5000000000000000  0.6512478407596519
  0.5000000000000000  0.5000000000000000  0.6524074684510949
  0.0000000000000000  0.0000000000000000  0.3498014611935788
  0.5000000000000000  0.0000000000000000  0.3487521592403482
  0.0000000000000000  0.5000000000000000  0.3487521592403482
  0.5000000000000000  0.5000000000000000  0.3475925315489050
  0.2489795340342908  0.2489795340342908  0.1494257261593433
  0.7510204659657022  0.2489795340342908  0.1494257261593433
  0.2489795340342908  0.7510204659657022  0.1494257261593433
  0.7510204659657022  0.7510204659657022  0.1494257261593433
  0.5000000000000000  0.0000000000000000  0.0000000000000000
  0.0000000000000000  0.5000000000000000  1.0000000000000000
  0.5000000000000000  0.5000000000000000  0.0000000000000000
  0.2492227322611740  0.2492227322611740  0.5000000000000000
  0.7507772677388260  0.2492227322611740  0.5000000000000000
  0.2492227322611740  0.7507772677388260  0.5000000000000000
  0.7507772677388260  0.7507772677388260  0.5000000000000000
  0.0000000000000000  0.2497906480536897  0.7506855957205688
  0.5000000000000000  0.2499251554918374  0.7512011450623034
  1.0000000000000000  0.7502093519463102  0.7506855957205688
  0.5000000000000000  0.7500748445081625  0.7512011450623034
  0.2497906480536897  1.0000000000000000  0.7506855957205688
  0.7502093519463102  1.0000000000000000  0.7506855957205688
  0.2499251554918374  0.5000000000000000  0.7512011450623034
  0.7500748445081625  0.5000000000000000  0.7512011450623034
  0.2497906480536897  0.0000000000000000  0.2493144042794313
  0.7502093519463102  0.0000000000000000  0.2493144042794313
  0.2499251554918374  0.5000000000000000  0.2487988549376965
  0.7500748445081625  0.5000000000000000  0.2487988549376965
  0.0000000000000000  0.2497906480536897  0.2493144042794313
  0.5000000000000000  0.2499251554918374  0.2487988549376965
  0.0000000000000000  0.7502093519463102  0.2493144042794313
  0.5000000000000000  0.7500748445081625  0.2487988549376965
  0.0000000000000000  0.0000000000000000  0.0000000000000000
 
  0.00000000E+00  0.00000000E+00  0.00000000E+00
  0.00000000E+00  0.00000000E+00  0.00000000E+00
  0.00000000E+00  0.00000000E+00  0.00000000E+00
  0.00000000E+00  0.00000000E+00  0.00000000E+00
  0.00000000E+00  0.00000000E+00  0.00000000E+00
  0.00000000E+00  0.00000000E+00  0.00000000E+00
  0.00000000E+00  0.00000000E+00  0.00000000E+00
  0.00000000E+00  0.00000000E+00  0.00000000E+00
  0.00000000E+00  0.00000000E+00  0.00000000E+00
  0.00000000E+00  0.00000000E+00  0.00000000E+00
  0.00000000E+00  0.00000000E+00  0.00000000E+00
  0.00000000E+00  0.00000000E+00  0.00000000E+00
  0.00000000E+00  0.00000000E+00  0.00000000E+00
  0.00000000E+00  0.00000000E+00  0.00000000E+00
  0.00000000E+00  0.00000000E+00  0.00000000E+00
  0.00000000E+00  0.00000000E+00  0.00000000E+00
  0.00000000E+00  0.00000000E+00  0.00000000E+00
  0.00000000E+00  0.00000000E+00  0.00000000E+00
  0.00000000E+00  0.00000000E+00  0.00000000E+00
  0.00000000E+00  0.00000000E+00  0.00000000E+00
  0.00000000E+00  0.00000000E+00  0.00000000E+00
  0.00000000E+00  0.00000000E+00  0.00000000E+00
  0.00000000E+00  0.00000000E+00  0.00000000E+00
  0.00000000E+00  0.00000000E+00  0.00000000E+00
  0.00000000E+00  0.00000000E+00  0.00000000E+00
  0.00000000E+00  0.00000000E+00  0.00000000E+00
  0.00000000E+00  0.00000000E+00  0.00000000E+00
  0.00000000E+00  0.00000000E+00  0.00000000E+00
  0.00000000E+00  0.00000000E+00  0.00000000E+00
  0.00000000E+00  0.00000000E+00  0.00000000E+00
  0.00000000E+00  0.00000000E+00  0.00000000E+00
  0.00000000E+00  0.00000000E+00  0.00000000E+00
  0.00000000E+00  0.00000000E+00  0.00000000E+00
  0.00000000E+00  0.00000000E+00  0.00000000E+00
  0.00000000E+00  0.00000000E+00  0.00000000E+00
  0.00000000E+00  0.00000000E+00  0.00000000E+00
  0.00000000E+00  0.00000000E+00  0.00000000E+00
  0.00000000E+00  0.00000000E+00  0.00000000E+00
  0.00000000E+00  0.00000000E+00  0.00000000E+00
  0.00000000E+00  0.00000000E+00  0.00000000E+00
