generated by phonopy                    
  0.985000000000000     
     7.8401590486790456    0.0000000000000000    0.0000000000000000
     0.0000000000000000    7.8401590486790456    0.0000000000000000
     0.0000000000000000    0.0000000000000000   12.3727018063995349
   Bi   Se   O    S 
    16     7    16     1
Direct
  0.2488048957091097  0.2488048957091097  0.8563967000217033
  0.7511951042908902  0.2488048957091097  0.8563967000217033
  0.2488048957091097  0.7511951042908902  0.8563967000217033
  0.7511951042908902  0.7511951042908902  0.8563967000217033
  0.0000000000000000  0.0000000000000000  0.6445374009931820
  0.5000000000000000  0.0000000000000000  0.6453824679827875
  0.0000000000000000  0.5000000000000000  0.6453824679827875
  0.5000000000000000  0.5000000000000000  0.6463166386670168
  0.0000000000000000  0.0000000000000000  0.3554625990068180
  0.5000000000000000  0.0000000000000000  0.3546175320172126
  0.0000000000000000  0.5000000000000000  0.3546175320172126
  0.5000000000000000  0.5000000000000000  0.3536833613329832
  0.2488048957091097  0.2488048957091097  0.1436032999782966
  0.7511951042908902  0.2488048957091097  0.1436032999782966
  0.2488048957091097  0.7511951042908902  0.1436032999782966
  0.7511951042908902  0.7511951042908902  0.1436032999782966
  0.5000000000000000  0.0000000000000000  1.0000000000000000
  0.0000000000000000  0.5000000000000000  1.0000000000000000
  0.5000000000000000  0.5000000000000000  1.0000000000000000
  0.2503358273485013  0.2503358273485013  0.5000000000000000
  0.7496641726514988  0.2503358273485013  0.5000000000000000
  0.2503358273485013  0.7496641726514988  0.5000000000000000
  0.7496641726514988  0.7496641726514988  0.5000000000000000
  0.0000000000000000  0.2494559903596251  0.7503577668482665
  0.5000000000000000  0.2495898290825256  0.7514900401965811
  0.0000000000000000  0.7505440096403750  0.7503577668482665
  0.5000000000000000  0.7504101709174744  0.7514900401965811
  0.2494559903596251  0.0000000000000000  0.7503577668482665
  0.7505440096403750  0.0000000000000000  0.7503577668482665
  0.2495898290825256  0.5000000000000000  0.7514900401965811
  0.7504101709174744  0.5000000000000000  0.7514900401965811
  0.2494559903596251  0.0000000000000000  0.2496422331517335
  0.7505440096403750  0.0000000000000000  0.2496422331517335
  0.2495898290825256  0.5000000000000000  0.2485099598034189
  0.7504101709174744  0.5000000000000000  0.2485099598034189
  0.0000000000000000  0.2494559903596251  0.2496422331517335
  0.5000000000000000  0.2495898290825256  0.2485099598034189
  0.0000000000000000  0.7505440096403750  0.2496422331517335
  0.5000000000000000  0.7504101709174744  0.2485099598034189
  0.0000000000000000  0.0000000000000000  1.0000000000000000
 
  0.00000000E+00  0.00000000E+00  0.00000000E+00
  0.00000000E+00  0.00000000E+00  0.00000000E+00
  0.00000000E+00  0.00000000E+00  0.00000000E+00
  0.00000000E+00  0.00000000E+00  0.00000000E+00
  0.00000000E+00  0.00000000E+00  0.00000000E+00
  0.00000000E+00  0.00000000E+00  0.00000000E+00
  0.00000000E+00  0.00000000E+00  0.00000000E+00
  0.00000000E+00  0.00000000E+00  0.00000000E+00
  0.00000000E+00  0.00000000E+00  0.00000000E+00
  0.00000000E+00  0.00000000E+00  0.00000000E+00
  0.00000000E+00  0.00000000E+00  0.00000000E+00
  0.00000000E+00  0.00000000E+00  0.00000000E+00
  0.00000000E+00  0.00000000E+00  0.00000000E+00
  0.00000000E+00  0.00000000E+00  0.00000000E+00
  0.00000000E+00  0.00000000E+00  0.00000000E+00
  0.00000000E+00  0.00000000E+00  0.00000000E+00
  0.00000000E+00  0.00000000E+00  0.00000000E+00
  0.00000000E+00  0.00000000E+00  0.00000000E+00
  0.00000000E+00  0.00000000E+00  0.00000000E+00
  0.00000000E+00  0.00000000E+00  0.00000000E+00
  0.00000000E+00  0.00000000E+00  0.00000000E+00
  0.00000000E+00  0.00000000E+00  0.00000000E+00
  0.00000000E+00  0.00000000E+00  0.00000000E+00
  0.00000000E+00  0.00000000E+00  0.00000000E+00
  0.00000000E+00  0.00000000E+00  0.00000000E+00
  0.00000000E+00  0.00000000E+00  0.00000000E+00
  0.00000000E+00  0.00000000E+00  0.00000000E+00
  0.00000000E+00  0.00000000E+00  0.00000000E+00
  0.00000000E+00  0.00000000E+00  0.00000000E+00
  0.00000000E+00  0.00000000E+00  0.00000000E+00
  0.00000000E+00  0.00000000E+00  0.00000000E+00
  0.00000000E+00  0.00000000E+00  0.00000000E+00
  0.00000000E+00  0.00000000E+00  0.00000000E+00
  0.00000000E+00  0.00000000E+00  0.00000000E+00
  0.00000000E+00  0.00000000E+00  0.00000000E+00
  0.00000000E+00  0.00000000E+00  0.00000000E+00
  0.00000000E+00  0.00000000E+00  0.00000000E+00
  0.00000000E+00  0.00000000E+00  0.00000000E+00
  0.00000000E+00  0.00000000E+00  0.00000000E+00
  0.00000000E+00  0.00000000E+00  0.00000000E+00
