generated by phonopy                    
  0.985000000000000     
     7.8401590486790464    0.0000000000000000    0.0000000000000000
     0.0000000000000000    7.8401590486790464    0.0000000000000000
     0.0000000000000000    0.0000000000000000   12.3727018063995349
   Bi   Se   O    S 
    16     7    16     1
Direct
  0.2488048935746323  0.2488048935746323  0.8563966610918577
  0.7511951064253677  0.2488048935746323  0.8563966610918577
  0.2488048935746323  0.7511951064253677  0.8563966610918577
  0.7511951064253677  0.7511951064253677  0.8563966610918577
  0.0000000000000000  0.0000000000000000  0.6445373562810516
  0.5000000000000000  0.0000000000000000  0.6453824445631301
  0.0000000000000000  0.5000000000000000  0.6453824445631301
  0.5000000000000000  0.5000000000000000  0.6463166369048399
  0.0000000000000000  0.0000000000000000  0.3554626437189484
  0.5000000000000000  0.0000000000000000  0.3546175554368701
  0.0000000000000000  0.5000000000000000  0.3546175554368701
  0.5000000000000000  0.5000000000000000  0.3536833630951606
  0.2488048935746323  0.2488048935746323  0.1436033389081424
  0.7511951064253677  0.2488048935746323  0.1436033389081424
  0.2488048935746323  0.7511951064253677  0.1436033389081424
  0.7511951064253677  0.7511951064253677  0.1436033389081424
  0.5000000000000000  0.0000000000000000  0.0000000000000000
  0.0000000000000000  0.5000000000000000  0.0000000000000000
  0.5000000000000000  0.5000000000000000  0.0000000000000000
  0.2503357990158012  0.2503357990158012  0.5000000000000000
  0.7496642009841985  0.2503357990158012  0.5000000000000000
  0.2503357990158012  0.7496642009841985  0.5000000000000000
  0.7496642009841985  0.7496642009841985  0.5000000000000000
  0.0000000000000000  0.2494560236381277  0.7503577646782226
  0.5000000000000000  0.2495898533754433  0.7514900728551706
  0.0000000000000000  0.7505439763618724  0.7503577646782226
  0.5000000000000000  0.7504101466245569  0.7514900728551706
  0.2494560236381277  0.0000000000000000  0.7503577646782226
  0.7505439763618724  0.0000000000000000  0.7503577646782226
  0.2495898533754433  0.5000000000000000  0.7514900728551706
  0.7504101466245569  0.5000000000000000  0.7514900728551706
  0.2494560236381277  0.0000000000000000  0.2496422353217774
  0.7505439763618724  0.0000000000000000  0.2496422353217774
  0.2495898533754433  0.5000000000000000  0.2485099271448296
  0.7504101466245569  0.5000000000000000  0.2485099271448296
  0.0000000000000000  0.2494560236381277  0.2496422353217774
  0.5000000000000000  0.2495898533754433  0.2485099271448296
  0.0000000000000000  0.7505439763618724  0.2496422353217774
  0.5000000000000000  0.7504101466245569  0.2485099271448296
  0.0000000000000000  0.0000000000000000  0.0000000000000000
 
  0.00000000E+00  0.00000000E+00  0.00000000E+00
  0.00000000E+00  0.00000000E+00  0.00000000E+00
  0.00000000E+00  0.00000000E+00  0.00000000E+00
  0.00000000E+00  0.00000000E+00  0.00000000E+00
  0.00000000E+00  0.00000000E+00  0.00000000E+00
  0.00000000E+00  0.00000000E+00  0.00000000E+00
  0.00000000E+00  0.00000000E+00  0.00000000E+00
  0.00000000E+00  0.00000000E+00  0.00000000E+00
  0.00000000E+00  0.00000000E+00  0.00000000E+00
  0.00000000E+00  0.00000000E+00  0.00000000E+00
  0.00000000E+00  0.00000000E+00  0.00000000E+00
  0.00000000E+00  0.00000000E+00  0.00000000E+00
  0.00000000E+00  0.00000000E+00  0.00000000E+00
  0.00000000E+00  0.00000000E+00  0.00000000E+00
  0.00000000E+00  0.00000000E+00  0.00000000E+00
  0.00000000E+00  0.00000000E+00  0.00000000E+00
  0.00000000E+00  0.00000000E+00  0.00000000E+00
  0.00000000E+00  0.00000000E+00  0.00000000E+00
  0.00000000E+00  0.00000000E+00  0.00000000E+00
  0.00000000E+00  0.00000000E+00  0.00000000E+00
  0.00000000E+00  0.00000000E+00  0.00000000E+00
  0.00000000E+00  0.00000000E+00  0.00000000E+00
  0.00000000E+00  0.00000000E+00  0.00000000E+00
  0.00000000E+00  0.00000000E+00  0.00000000E+00
  0.00000000E+00  0.00000000E+00  0.00000000E+00
  0.00000000E+00  0.00000000E+00  0.00000000E+00
  0.00000000E+00  0.00000000E+00  0.00000000E+00
  0.00000000E+00  0.00000000E+00  0.00000000E+00
  0.00000000E+00  0.00000000E+00  0.00000000E+00
  0.00000000E+00  0.00000000E+00  0.00000000E+00
  0.00000000E+00  0.00000000E+00  0.00000000E+00
  0.00000000E+00  0.00000000E+00  0.00000000E+00
  0.00000000E+00  0.00000000E+00  0.00000000E+00
  0.00000000E+00  0.00000000E+00  0.00000000E+00
  0.00000000E+00  0.00000000E+00  0.00000000E+00
  0.00000000E+00  0.00000000E+00  0.00000000E+00
  0.00000000E+00  0.00000000E+00  0.00000000E+00
  0.00000000E+00  0.00000000E+00  0.00000000E+00
  0.00000000E+00  0.00000000E+00  0.00000000E+00
  0.00000000E+00  0.00000000E+00  0.00000000E+00
