generated by phonopy                    
  0.965000000000000     
     7.8401590486790473    0.0000000000000000    0.0000000000000000
     0.0000000000000000    7.8401590486790473    0.0000000000000000
     0.0000000000000000    0.0000000000000000   12.3727018063995384
   Bi   Se   O    S 
    16     7    16     1
Direct
  0.2486472912642398  0.2486472912642398  0.8590563459319696
  0.7513527087357601  0.2486472912642398  0.8590563459319696
  0.2486472912642398  0.7513527087357601  0.8590563459319696
  0.7513527087357601  0.7513527087357601  0.8590563459319696
  0.0000000000000000  0.0000000000000000  0.6417175070177485
  0.5000000000000000  0.0000000000000000  0.6426563409656642
  0.0000000000000000  0.5000000000000000  0.6426563409656642
  0.5000000000000000  0.5000000000000000  0.6436708975200706
  0.0000000000000000  0.0000000000000000  0.3582824929822517
  0.5000000000000000  0.0000000000000000  0.3573436590343356
  0.0000000000000000  0.5000000000000000  0.3573436590343356
  0.5000000000000000  0.5000000000000000  0.3563291024799294
  0.2486472912642398  0.2486472912642398  0.1409436540680305
  0.7513527087357601  0.2486472912642398  0.1409436540680305
  0.2486472912642398  0.7513527087357601  0.1409436540680305
  0.7513527087357601  0.7513527087357601  0.1409436540680305
  0.5000000000000000  0.0000000000000000  0.0000000000000000
  0.0000000000000000  0.5000000000000000  0.0000000000000000
  0.5000000000000000  0.5000000000000000  0.0000000000000000
  0.2505181014041160  0.2505181014041160  0.5000000000000000
  0.7494818985958841  0.2505181014041160  0.5000000000000000
  0.2505181014041160  0.7494818985958841  0.5000000000000000
  0.7494818985958841  0.7494818985958841  0.5000000000000000
  0.0000000000000000  0.2493683770633351  0.7501874625934432
  0.5000000000000000  0.2494999461165234  0.7515971839314420
  0.0000000000000000  0.7506316229366649  0.7501874625934432
  0.5000000000000000  0.7505000538834768  0.7515971839314420
  0.2493683770633351  0.0000000000000000  0.7501874625934432
  0.7506316229366649  0.0000000000000000  0.7501874625934432
  0.2494999461165234  0.5000000000000000  0.7515971839314420
  0.7505000538834768  0.5000000000000000  0.7515971839314420
  0.2493683770633351  0.0000000000000000  0.2498125374065568
  0.7506316229366649  0.0000000000000000  0.2498125374065568
  0.2494999461165234  0.5000000000000000  0.2484028160685583
  0.7505000538834768  0.5000000000000000  0.2484028160685583
  0.0000000000000000  0.2493683770633351  0.2498125374065568
  0.5000000000000000  0.2494999461165234  0.2484028160685583
  0.0000000000000000  0.7506316229366649  0.2498125374065568
  0.5000000000000000  0.7505000538834768  0.2484028160685583
  0.0000000000000000  0.0000000000000000  0.0000000000000000
 
  0.00000000E+00  0.00000000E+00  0.00000000E+00
  0.00000000E+00  0.00000000E+00  0.00000000E+00
  0.00000000E+00  0.00000000E+00  0.00000000E+00
  0.00000000E+00  0.00000000E+00  0.00000000E+00
  0.00000000E+00  0.00000000E+00  0.00000000E+00
  0.00000000E+00  0.00000000E+00  0.00000000E+00
  0.00000000E+00  0.00000000E+00  0.00000000E+00
  0.00000000E+00  0.00000000E+00  0.00000000E+00
  0.00000000E+00  0.00000000E+00  0.00000000E+00
  0.00000000E+00  0.00000000E+00  0.00000000E+00
  0.00000000E+00  0.00000000E+00  0.00000000E+00
  0.00000000E+00  0.00000000E+00  0.00000000E+00
  0.00000000E+00  0.00000000E+00  0.00000000E+00
  0.00000000E+00  0.00000000E+00  0.00000000E+00
  0.00000000E+00  0.00000000E+00  0.00000000E+00
  0.00000000E+00  0.00000000E+00  0.00000000E+00
  0.00000000E+00  0.00000000E+00  0.00000000E+00
  0.00000000E+00  0.00000000E+00  0.00000000E+00
  0.00000000E+00  0.00000000E+00  0.00000000E+00
  0.00000000E+00  0.00000000E+00  0.00000000E+00
  0.00000000E+00  0.00000000E+00  0.00000000E+00
  0.00000000E+00  0.00000000E+00  0.00000000E+00
  0.00000000E+00  0.00000000E+00  0.00000000E+00
  0.00000000E+00  0.00000000E+00  0.00000000E+00
  0.00000000E+00  0.00000000E+00  0.00000000E+00
  0.00000000E+00  0.00000000E+00  0.00000000E+00
  0.00000000E+00  0.00000000E+00  0.00000000E+00
  0.00000000E+00  0.00000000E+00  0.00000000E+00
  0.00000000E+00  0.00000000E+00  0.00000000E+00
  0.00000000E+00  0.00000000E+00  0.00000000E+00
  0.00000000E+00  0.00000000E+00  0.00000000E+00
  0.00000000E+00  0.00000000E+00  0.00000000E+00
  0.00000000E+00  0.00000000E+00  0.00000000E+00
  0.00000000E+00  0.00000000E+00  0.00000000E+00
  0.00000000E+00  0.00000000E+00  0.00000000E+00
  0.00000000E+00  0.00000000E+00  0.00000000E+00
  0.00000000E+00  0.00000000E+00  0.00000000E+00
  0.00000000E+00  0.00000000E+00  0.00000000E+00
  0.00000000E+00  0.00000000E+00  0.00000000E+00
  0.00000000E+00  0.00000000E+00  0.00000000E+00
