generated by phonopy                    
  0.965000000000000     
     7.8401590486790473    0.0000000000000000    0.0000000000000000
     0.0000000000000000    7.8401590486790473    0.0000000000000000
     0.0000000000000000    0.0000000000000000   12.3727018063995367
   Bi   Se   O    S 
    16     7    16     1
Direct
  0.2486463632202535  0.2486463632202535  0.8590530277310588
  0.7513536367797465  0.2486463632202535  0.8590530277310588
  0.2486463632202535  0.7513536367797465  0.8590530277310588
  0.7513536367797465  0.7513536367797465  0.8590530277310588
  1.0000000000000000  1.0000000000000000  0.6417123499208607
  0.5000000000000000  1.0000000000000000  0.6426529400159132
  1.0000000000000000  0.5000000000000000  0.6426529400159132
  0.5000000000000000  0.5000000000000000  0.6436685690411396
  1.0000000000000000  1.0000000000000000  0.3582876500791395
  0.5000000000000000  1.0000000000000000  0.3573470599840873
  1.0000000000000000  0.5000000000000000  0.3573470599840873
  0.5000000000000000  0.5000000000000000  0.3563314309588602
  0.2486463632202535  0.2486463632202535  0.1409469722689408
  0.7513536367797465  0.2486463632202535  0.1409469722689408
  0.2486463632202535  0.7513536367797465  0.1409469722689408
  0.7513536367797465  0.7513536367797465  0.1409469722689408
  0.5000000000000000  1.0000000000000000  0.0000000000000000
  1.0000000000000000  0.5000000000000000  0.0000000000000000
  0.5000000000000000  0.5000000000000000  0.0000000000000000
  0.2505112465577670  0.2505112465577670  0.5000000000000000
  0.7494887534422331  0.2505112465577670  0.5000000000000000
  0.2505112465577670  0.7494887534422331  0.5000000000000000
  0.7494887534422331  0.7494887534422331  0.5000000000000000
  1.0000000000000000  0.2493683235750768  0.7501851722632914
  0.5000000000000000  0.2494999669559819  0.7515908942303310
  1.0000000000000000  0.7506316764249233  0.7501851722632914
  0.5000000000000000  0.7505000330440181  0.7515908942303310
  0.2493683235750768  1.0000000000000000  0.7501851722632914
  0.7506316764249233  1.0000000000000000  0.7501851722632914
  0.2494999669559819  0.5000000000000000  0.7515908942303310
  0.7505000330440181  0.5000000000000000  0.7515908942303310
  0.2493683235750768  1.0000000000000000  0.2498148277367088
  0.7506316764249233  1.0000000000000000  0.2498148277367088
  0.2494999669559819  0.5000000000000000  0.2484091057696692
  0.7505000330440181  0.5000000000000000  0.2484091057696692
  1.0000000000000000  0.2493683235750768  0.2498148277367088
  0.5000000000000000  0.2494999669559819  0.2484091057696692
  1.0000000000000000  0.7506316764249233  0.2498148277367088
  0.5000000000000000  0.7505000330440181  0.2484091057696692
  1.0000000000000000  1.0000000000000000  0.0000000000000000
 
  0.00000000E+00  0.00000000E+00  0.00000000E+00
  0.00000000E+00  0.00000000E+00  0.00000000E+00
  0.00000000E+00  0.00000000E+00  0.00000000E+00
  0.00000000E+00  0.00000000E+00  0.00000000E+00
  0.00000000E+00  0.00000000E+00  0.00000000E+00
  0.00000000E+00  0.00000000E+00  0.00000000E+00
  0.00000000E+00  0.00000000E+00  0.00000000E+00
  0.00000000E+00  0.00000000E+00  0.00000000E+00
  0.00000000E+00  0.00000000E+00  0.00000000E+00
  0.00000000E+00  0.00000000E+00  0.00000000E+00
  0.00000000E+00  0.00000000E+00  0.00000000E+00
  0.00000000E+00  0.00000000E+00  0.00000000E+00
  0.00000000E+00  0.00000000E+00  0.00000000E+00
  0.00000000E+00  0.00000000E+00  0.00000000E+00
  0.00000000E+00  0.00000000E+00  0.00000000E+00
  0.00000000E+00  0.00000000E+00  0.00000000E+00
  0.00000000E+00  0.00000000E+00  0.00000000E+00
  0.00000000E+00  0.00000000E+00  0.00000000E+00
  0.00000000E+00  0.00000000E+00  0.00000000E+00
  0.00000000E+00  0.00000000E+00  0.00000000E+00
  0.00000000E+00  0.00000000E+00  0.00000000E+00
  0.00000000E+00  0.00000000E+00  0.00000000E+00
  0.00000000E+00  0.00000000E+00  0.00000000E+00
  0.00000000E+00  0.00000000E+00  0.00000000E+00
  0.00000000E+00  0.00000000E+00  0.00000000E+00
  0.00000000E+00  0.00000000E+00  0.00000000E+00
  0.00000000E+00  0.00000000E+00  0.00000000E+00
  0.00000000E+00  0.00000000E+00  0.00000000E+00
  0.00000000E+00  0.00000000E+00  0.00000000E+00
  0.00000000E+00  0.00000000E+00  0.00000000E+00
  0.00000000E+00  0.00000000E+00  0.00000000E+00
  0.00000000E+00  0.00000000E+00  0.00000000E+00
  0.00000000E+00  0.00000000E+00  0.00000000E+00
  0.00000000E+00  0.00000000E+00  0.00000000E+00
  0.00000000E+00  0.00000000E+00  0.00000000E+00
  0.00000000E+00  0.00000000E+00  0.00000000E+00
  0.00000000E+00  0.00000000E+00  0.00000000E+00
  0.00000000E+00  0.00000000E+00  0.00000000E+00
  0.00000000E+00  0.00000000E+00  0.00000000E+00
  0.00000000E+00  0.00000000E+00  0.00000000E+00
