generated by phonopy                    
   1.00000000000000     
     7.8401590486790473    0.0000000000000000    0.0000000000000000
     0.0000000000000000    7.8401590486790473    0.0000000000000000
     0.0000000000000000    0.0000000000000000   12.3727018063995349
   Bi   Se   O    S 
    16     7    16     1
Direct
  0.2489110495166713  0.2489110495166713  0.8542819107496840
  0.7510889504833287  0.2489110495166713  0.8542819107496840
  0.2489110495166713  0.7510889504833287  0.8542819107496840
  0.7510889504833287  0.7510889504833287  0.8542819107496840
  0.0000000000000000  0.0000000000000000  0.6467176756396071
  0.5000000000000000  0.0000000000000000  0.6475158914949759
  0.0000000000000000  0.5000000000000000  0.6475158914949759
  0.5000000000000000  0.5000000000000000  0.6484172803131827
  0.0000000000000000  0.0000000000000000  0.3532823243603929
  0.5000000000000000  0.0000000000000000  0.3524841085050241
  0.0000000000000000  0.5000000000000000  0.3524841085050241
  0.5000000000000000  0.5000000000000000  0.3515827196868173
  0.2489110495166713  0.2489110495166713  0.1457180892503160
  0.7510889504833287  0.2489110495166713  0.1457180892503160
  0.2489110495166713  0.7510889504833287  0.1457180892503160
  0.7510889504833287  0.7510889504833287  0.1457180892503160
  0.5000000000000000  0.0000000000000000  0.0000000000000000
  0.0000000000000000  0.5000000000000000  0.0000000000000000
  0.5000000000000000  0.5000000000000000  0.0000000000000000
  0.2501375670767487  0.2501375670767487  0.5000000000000000
  0.7498624329232513  0.2501375670767487  0.5000000000000000
  0.2501375670767487  0.7498624329232513  0.5000000000000000
  0.7498624329232513  0.7498624329232513  0.5000000000000000
  0.0000000000000000  0.2495352112647211  0.7504735526428021
  0.5000000000000000  0.2496702218851894  0.7513937827212303
  0.0000000000000000  0.7504647887352789  0.7504735526428021
  0.5000000000000000  0.7503297781148106  0.7513937827212303
  0.2495352112647211  0.0000000000000000  0.7504735526428021
  0.7504647887352789  0.0000000000000000  0.7504735526428021
  0.2496702218851894  0.5000000000000000  0.7513937827212303
  0.7503297781148106  0.5000000000000000  0.7513937827212303
  0.2495352112647211  0.0000000000000000  0.2495264473571979
  0.7504647887352789  0.0000000000000000  0.2495264473571979
  0.2496702218851894  0.5000000000000000  0.2486062172787697
  0.7503297781148106  0.5000000000000000  0.2486062172787697
  0.0000000000000000  0.2495352112647211  0.2495264473571979
  0.5000000000000000  0.2496702218851894  0.2486062172787697
  0.0000000000000000  0.7504647887352789  0.2495264473571979
  0.5000000000000000  0.7503297781148106  0.2486062172787697
  0.0000000000000000  0.0000000000000000  0.0000000000000000
 
  0.00000000E+00  0.00000000E+00  0.00000000E+00
  0.00000000E+00  0.00000000E+00  0.00000000E+00
  0.00000000E+00  0.00000000E+00  0.00000000E+00
  0.00000000E+00  0.00000000E+00  0.00000000E+00
  0.00000000E+00  0.00000000E+00  0.00000000E+00
  0.00000000E+00  0.00000000E+00  0.00000000E+00
  0.00000000E+00  0.00000000E+00  0.00000000E+00
  0.00000000E+00  0.00000000E+00  0.00000000E+00
  0.00000000E+00  0.00000000E+00  0.00000000E+00
  0.00000000E+00  0.00000000E+00  0.00000000E+00
  0.00000000E+00  0.00000000E+00  0.00000000E+00
  0.00000000E+00  0.00000000E+00  0.00000000E+00
  0.00000000E+00  0.00000000E+00  0.00000000E+00
  0.00000000E+00  0.00000000E+00  0.00000000E+00
  0.00000000E+00  0.00000000E+00  0.00000000E+00
  0.00000000E+00  0.00000000E+00  0.00000000E+00
  0.00000000E+00  0.00000000E+00  0.00000000E+00
  0.00000000E+00  0.00000000E+00  0.00000000E+00
  0.00000000E+00  0.00000000E+00  0.00000000E+00
  0.00000000E+00  0.00000000E+00  0.00000000E+00
  0.00000000E+00  0.00000000E+00  0.00000000E+00
  0.00000000E+00  0.00000000E+00  0.00000000E+00
  0.00000000E+00  0.00000000E+00  0.00000000E+00
  0.00000000E+00  0.00000000E+00  0.00000000E+00
  0.00000000E+00  0.00000000E+00  0.00000000E+00
  0.00000000E+00  0.00000000E+00  0.00000000E+00
  0.00000000E+00  0.00000000E+00  0.00000000E+00
  0.00000000E+00  0.00000000E+00  0.00000000E+00
  0.00000000E+00  0.00000000E+00  0.00000000E+00
  0.00000000E+00  0.00000000E+00  0.00000000E+00
  0.00000000E+00  0.00000000E+00  0.00000000E+00
  0.00000000E+00  0.00000000E+00  0.00000000E+00
  0.00000000E+00  0.00000000E+00  0.00000000E+00
  0.00000000E+00  0.00000000E+00  0.00000000E+00
  0.00000000E+00  0.00000000E+00  0.00000000E+00
  0.00000000E+00  0.00000000E+00  0.00000000E+00
  0.00000000E+00  0.00000000E+00  0.00000000E+00
  0.00000000E+00  0.00000000E+00  0.00000000E+00
  0.00000000E+00  0.00000000E+00  0.00000000E+00
  0.00000000E+00  0.00000000E+00  0.00000000E+00
