generated by phonopy                    
   1.00000000000000     
     7.8401590486790473    0.0000000000000000    0.0000000000000000
     0.0000000000000000    7.8401590486790473    0.0000000000000000
     0.0000000000000000    0.0000000000000000   12.3727018063995349
   Bi   Se   O    S 
    16     7    16     1
Direct
  0.2489110495166690  0.2489110495166690  0.8542819107496813
  0.7510889504833307  0.2489110495166690  0.8542819107496813
  0.2489110495166690  0.7510889504833307  0.8542819107496813
  0.7510889504833307  0.7510889504833307  0.8542819107496813
  0.0000000000000000  0.0000000000000000  0.6467176756396066
  0.5000000000000000  0.0000000000000000  0.6475158914949746
  0.0000000000000000  0.5000000000000000  0.6475158914949746
  0.5000000000000000  0.5000000000000000  0.6484172803131852
  0.0000000000000000  0.0000000000000000  0.3532823243603936
  0.5000000000000000  0.0000000000000000  0.3524841085050256
  0.0000000000000000  0.5000000000000000  0.3524841085050256
  0.5000000000000000  0.5000000000000000  0.3515827196868148
  0.2489110495166690  0.2489110495166690  0.1457180892503188
  0.7510889504833307  0.2489110495166690  0.1457180892503188
  0.2489110495166690  0.7510889504833307  0.1457180892503188
  0.7510889504833307  0.7510889504833307  0.1457180892503188
  0.5000000000000000  0.0000000000000000  0.0000000000000000
  0.0000000000000000  0.5000000000000000  0.0000000000000000
  0.5000000000000000  0.5000000000000000  0.0000000000000000
  0.2501375670767509  0.2501375670767509  0.5000000000000000
  0.7498624329232489  0.2501375670767509  0.5000000000000000
  0.2501375670767509  0.7498624329232489  0.5000000000000000
  0.7498624329232489  0.7498624329232489  0.5000000000000000
  0.0000000000000000  0.2495352112647181  0.7504735526428005
  0.5000000000000000  0.2496702218851913  0.7513937827212287
  0.0000000000000000  0.7504647887352819  0.7504735526428005
  0.5000000000000000  0.7503297781148087  0.7513937827212287
  0.2495352112647181  0.0000000000000000  0.7504735526428005
  0.7504647887352819  0.0000000000000000  0.7504735526428005
  0.2496702218851913  0.5000000000000000  0.7513937827212287
  0.7503297781148087  0.5000000000000000  0.7513937827212287
  0.2495352112647181  0.0000000000000000  0.2495264473571997
  0.7504647887352819  0.0000000000000000  0.2495264473571997
  0.2496702218851913  0.5000000000000000  0.2486062172787712
  0.7503297781148087  0.5000000000000000  0.2486062172787712
  0.0000000000000000  0.2495352112647181  0.2495264473571997
  0.5000000000000000  0.2496702218851913  0.2486062172787712
  0.0000000000000000  0.7504647887352819  0.2495264473571997
  0.5000000000000000  0.7503297781148087  0.2486062172787712
  0.0000000000000000  0.0000000000000000  0.0000000000000000
 
  0.00000000E+00  0.00000000E+00  0.00000000E+00
  0.00000000E+00  0.00000000E+00  0.00000000E+00
  0.00000000E+00  0.00000000E+00  0.00000000E+00
  0.00000000E+00  0.00000000E+00  0.00000000E+00
  0.00000000E+00  0.00000000E+00  0.00000000E+00
  0.00000000E+00  0.00000000E+00  0.00000000E+00
  0.00000000E+00  0.00000000E+00  0.00000000E+00
  0.00000000E+00  0.00000000E+00  0.00000000E+00
  0.00000000E+00  0.00000000E+00  0.00000000E+00
  0.00000000E+00  0.00000000E+00  0.00000000E+00
  0.00000000E+00  0.00000000E+00  0.00000000E+00
  0.00000000E+00  0.00000000E+00  0.00000000E+00
  0.00000000E+00  0.00000000E+00  0.00000000E+00
  0.00000000E+00  0.00000000E+00  0.00000000E+00
  0.00000000E+00  0.00000000E+00  0.00000000E+00
  0.00000000E+00  0.00000000E+00  0.00000000E+00
  0.00000000E+00  0.00000000E+00  0.00000000E+00
  0.00000000E+00  0.00000000E+00  0.00000000E+00
  0.00000000E+00  0.00000000E+00  0.00000000E+00
  0.00000000E+00  0.00000000E+00  0.00000000E+00
  0.00000000E+00  0.00000000E+00  0.00000000E+00
  0.00000000E+00  0.00000000E+00  0.00000000E+00
  0.00000000E+00  0.00000000E+00  0.00000000E+00
  0.00000000E+00  0.00000000E+00  0.00000000E+00
  0.00000000E+00  0.00000000E+00  0.00000000E+00
  0.00000000E+00  0.00000000E+00  0.00000000E+00
  0.00000000E+00  0.00000000E+00  0.00000000E+00
  0.00000000E+00  0.00000000E+00  0.00000000E+00
  0.00000000E+00  0.00000000E+00  0.00000000E+00
  0.00000000E+00  0.00000000E+00  0.00000000E+00
  0.00000000E+00  0.00000000E+00  0.00000000E+00
  0.00000000E+00  0.00000000E+00  0.00000000E+00
  0.00000000E+00  0.00000000E+00  0.00000000E+00
  0.00000000E+00  0.00000000E+00  0.00000000E+00
  0.00000000E+00  0.00000000E+00  0.00000000E+00
  0.00000000E+00  0.00000000E+00  0.00000000E+00
  0.00000000E+00  0.00000000E+00  0.00000000E+00
  0.00000000E+00  0.00000000E+00  0.00000000E+00
  0.00000000E+00  0.00000000E+00  0.00000000E+00
  0.00000000E+00  0.00000000E+00  0.00000000E+00
