generated by phonopy                    
  0.975000000000000     
     7.8401590486790473    0.0000000000000000    0.0000000000000000
     0.0000000000000000    7.8401590486790473    0.0000000000000000
     0.0000000000000000    0.0000000000000000   12.3727018063995420
   Bi   Se   O    S 
    16     7    16     1
Direct
  0.2487275758009975  0.2487275758009975  0.8577508129534650
  0.7512724241990025  0.2487275758009975  0.8577508129534650
  0.2487275758009975  0.7512724241990025  0.8577508129534650
  0.7512724241990025  0.7512724241990025  0.8577508129534650
  0.0000000000000000  0.0000000000000000  0.6431102762339975
  0.5000000000000000  0.0000000000000000  0.6440005414255817
  0.0000000000000000  0.5000000000000000  0.6440005414255817
  0.5000000000000000  0.5000000000000000  0.6449726019222897
  0.0000000000000000  0.0000000000000000  0.3568897237660095
  0.5000000000000000  0.0000000000000000  0.3559994585744181
  0.0000000000000000  0.5000000000000000  0.3559994585744181
  0.5000000000000000  0.5000000000000000  0.3550273980777174
  0.2487275758009975  0.2487275758009975  0.1422491870465351
  0.7512724241990025  0.2487275758009975  0.1422491870465351
  0.2487275758009975  0.7512724241990025  0.1422491870465351
  0.7512724241990025  0.7512724241990025  0.1422491870465351
  0.5000000000000000  0.0000000000000000  0.0000000000000000
  0.0000000000000000  0.5000000000000000  0.0000000000000000
  0.5000000000000000  0.5000000000000000  0.0000000000000000
  0.2504356298301054  0.2504356298301054  0.5000000000000000
  0.7495643701698945  0.2504356298301054  0.5000000000000000
  0.2504356298301054  0.7495643701698945  0.5000000000000000
  0.7495643701698945  0.7495643701698945  0.5000000000000000
  0.0000000000000000  0.2494097564886759  0.7502741543856001
  0.5000000000000000  0.2495425328961233  0.7515468453207510
  0.0000000000000000  0.7505902435113242  0.7502741543856001
  0.5000000000000000  0.7504574671038768  0.7515468453207510
  0.2494097564886759  0.0000000000000000  0.7502741543856001
  0.7505902435113242  0.0000000000000000  0.7502741543856001
  0.2495425328961233  0.5000000000000000  0.7515468453207510
  0.7504574671038768  0.5000000000000000  0.7515468453207510
  0.2494097564886759  0.0000000000000000  0.2497258456143999
  0.7505902435113242  0.0000000000000000  0.2497258456143999
  0.2495425328961233  0.5000000000000000  0.2484531546792491
  0.7504574671038768  0.5000000000000000  0.2484531546792491
  0.0000000000000000  0.2494097564886759  0.2497258456143999
  0.5000000000000000  0.2495425328961233  0.2484531546792491
  0.0000000000000000  0.7505902435113242  0.2497258456143999
  0.5000000000000000  0.7504574671038768  0.2484531546792491
  0.0000000000000000  0.0000000000000000  0.0000000000000000
 
  0.00000000E+00  0.00000000E+00  0.00000000E+00
  0.00000000E+00  0.00000000E+00  0.00000000E+00
  0.00000000E+00  0.00000000E+00  0.00000000E+00
  0.00000000E+00  0.00000000E+00  0.00000000E+00
  0.00000000E+00  0.00000000E+00  0.00000000E+00
  0.00000000E+00  0.00000000E+00  0.00000000E+00
  0.00000000E+00  0.00000000E+00  0.00000000E+00
  0.00000000E+00  0.00000000E+00  0.00000000E+00
  0.00000000E+00  0.00000000E+00  0.00000000E+00
  0.00000000E+00  0.00000000E+00  0.00000000E+00
  0.00000000E+00  0.00000000E+00  0.00000000E+00
  0.00000000E+00  0.00000000E+00  0.00000000E+00
  0.00000000E+00  0.00000000E+00  0.00000000E+00
  0.00000000E+00  0.00000000E+00  0.00000000E+00
  0.00000000E+00  0.00000000E+00  0.00000000E+00
  0.00000000E+00  0.00000000E+00  0.00000000E+00
  0.00000000E+00  0.00000000E+00  0.00000000E+00
  0.00000000E+00  0.00000000E+00  0.00000000E+00
  0.00000000E+00  0.00000000E+00  0.00000000E+00
  0.00000000E+00  0.00000000E+00  0.00000000E+00
  0.00000000E+00  0.00000000E+00  0.00000000E+00
  0.00000000E+00  0.00000000E+00  0.00000000E+00
  0.00000000E+00  0.00000000E+00  0.00000000E+00
  0.00000000E+00  0.00000000E+00  0.00000000E+00
  0.00000000E+00  0.00000000E+00  0.00000000E+00
  0.00000000E+00  0.00000000E+00  0.00000000E+00
  0.00000000E+00  0.00000000E+00  0.00000000E+00
  0.00000000E+00  0.00000000E+00  0.00000000E+00
  0.00000000E+00  0.00000000E+00  0.00000000E+00
  0.00000000E+00  0.00000000E+00  0.00000000E+00
  0.00000000E+00  0.00000000E+00  0.00000000E+00
  0.00000000E+00  0.00000000E+00  0.00000000E+00
  0.00000000E+00  0.00000000E+00  0.00000000E+00
  0.00000000E+00  0.00000000E+00  0.00000000E+00
  0.00000000E+00  0.00000000E+00  0.00000000E+00
  0.00000000E+00  0.00000000E+00  0.00000000E+00
  0.00000000E+00  0.00000000E+00  0.00000000E+00
  0.00000000E+00  0.00000000E+00  0.00000000E+00
  0.00000000E+00  0.00000000E+00  0.00000000E+00
  0.00000000E+00  0.00000000E+00  0.00000000E+00
