generated by phonopy                    
  0.975000000000000     
     7.8401590486790473    0.0000000000000000    0.0000000000000000
     0.0000000000000000    7.8401590486790473    0.0000000000000000
     0.0000000000000000    0.0000000000000000   12.3727018063995402
   Bi   Se   O    S 
    16     7    16     1
Direct
  0.2487276133267301  0.2487276133267301  0.8577507432480675
  0.7512723866732699  0.2487276133267301  0.8577507432480675
  0.2487276133267301  0.7512723866732699  0.8577507432480675
  0.7512723866732699  0.7512723866732699  0.8577507432480675
  0.0000000000000000  0.0000000000000000  0.6431102592824115
  0.5000000000000000  0.0000000000000000  0.6440004769840617
  0.0000000000000000  0.5000000000000000  0.6440004769840617
  0.5000000000000000  0.5000000000000000  0.6449724761718629
  0.0000000000000000  0.0000000000000000  0.3568897407175956
  0.5000000000000000  0.0000000000000000  0.3559995230159383
  0.0000000000000000  0.5000000000000000  0.3559995230159383
  0.5000000000000000  0.5000000000000000  0.3550275238281442
  0.2487276133267301  0.2487276133267301  0.1422492567519324
  0.7512723866732699  0.2487276133267301  0.1422492567519324
  0.2487276133267301  0.7512723866732699  0.1422492567519324
  0.7512723866732699  0.7512723866732699  0.1422492567519324
  0.5000000000000000  0.0000000000000000  0.0000000000000000
  0.0000000000000000  0.5000000000000000  0.0000000000000000
  0.5000000000000000  0.5000000000000000  0.0000000000000000
  0.2504355631535501  0.2504355631535501  0.5000000000000000
  0.7495644368464498  0.2504355631535501  0.5000000000000000
  0.2504355631535501  0.7495644368464498  0.5000000000000000
  0.7495644368464498  0.7495644368464498  0.5000000000000000
  0.0000000000000000  0.2494096848536625  0.7502741317043674
  0.5000000000000000  0.2495424993503003  0.7515468259552964
  0.0000000000000000  0.7505903151463377  0.7502741317043674
  0.5000000000000000  0.7504575006496997  0.7515468259552964
  0.2494096848536625  0.0000000000000000  0.7502741317043674
  0.7505903151463377  0.0000000000000000  0.7502741317043674
  0.2495424993503003  0.5000000000000000  0.7515468259552964
  0.7504575006496997  0.5000000000000000  0.7515468259552964
  0.2494096848536625  0.0000000000000000  0.2497258682956325
  0.7505903151463377  0.0000000000000000  0.2497258682956325
  0.2495424993503003  0.5000000000000000  0.2484531740447035
  0.7504575006496997  0.5000000000000000  0.2484531740447035
  0.0000000000000000  0.2494096848536625  0.2497258682956325
  0.5000000000000000  0.2495424993503003  0.2484531740447035
  0.0000000000000000  0.7505903151463377  0.2497258682956325
  0.5000000000000000  0.7504575006496997  0.2484531740447035
  0.0000000000000000  0.0000000000000000  0.0000000000000000
 
  0.00000000E+00  0.00000000E+00  0.00000000E+00
  0.00000000E+00  0.00000000E+00  0.00000000E+00
  0.00000000E+00  0.00000000E+00  0.00000000E+00
  0.00000000E+00  0.00000000E+00  0.00000000E+00
  0.00000000E+00  0.00000000E+00  0.00000000E+00
  0.00000000E+00  0.00000000E+00  0.00000000E+00
  0.00000000E+00  0.00000000E+00  0.00000000E+00
  0.00000000E+00  0.00000000E+00  0.00000000E+00
  0.00000000E+00  0.00000000E+00  0.00000000E+00
  0.00000000E+00  0.00000000E+00  0.00000000E+00
  0.00000000E+00  0.00000000E+00  0.00000000E+00
  0.00000000E+00  0.00000000E+00  0.00000000E+00
  0.00000000E+00  0.00000000E+00  0.00000000E+00
  0.00000000E+00  0.00000000E+00  0.00000000E+00
  0.00000000E+00  0.00000000E+00  0.00000000E+00
  0.00000000E+00  0.00000000E+00  0.00000000E+00
  0.00000000E+00  0.00000000E+00  0.00000000E+00
  0.00000000E+00  0.00000000E+00  0.00000000E+00
  0.00000000E+00  0.00000000E+00  0.00000000E+00
  0.00000000E+00  0.00000000E+00  0.00000000E+00
  0.00000000E+00  0.00000000E+00  0.00000000E+00
  0.00000000E+00  0.00000000E+00  0.00000000E+00
  0.00000000E+00  0.00000000E+00  0.00000000E+00
  0.00000000E+00  0.00000000E+00  0.00000000E+00
  0.00000000E+00  0.00000000E+00  0.00000000E+00
  0.00000000E+00  0.00000000E+00  0.00000000E+00
  0.00000000E+00  0.00000000E+00  0.00000000E+00
  0.00000000E+00  0.00000000E+00  0.00000000E+00
  0.00000000E+00  0.00000000E+00  0.00000000E+00
  0.00000000E+00  0.00000000E+00  0.00000000E+00
  0.00000000E+00  0.00000000E+00  0.00000000E+00
  0.00000000E+00  0.00000000E+00  0.00000000E+00
  0.00000000E+00  0.00000000E+00  0.00000000E+00
  0.00000000E+00  0.00000000E+00  0.00000000E+00
  0.00000000E+00  0.00000000E+00  0.00000000E+00
  0.00000000E+00  0.00000000E+00  0.00000000E+00
  0.00000000E+00  0.00000000E+00  0.00000000E+00
  0.00000000E+00  0.00000000E+00  0.00000000E+00
  0.00000000E+00  0.00000000E+00  0.00000000E+00
  0.00000000E+00  0.00000000E+00  0.00000000E+00
