generated by phonopy                    
  0.995000000000000     
     7.8401590486790447    0.0000000000000000    0.0000000000000000
     0.0000000000000000    7.8401590486790447    0.0000000000000000
     0.0000000000000000    0.0000000000000000   12.3727018063995278
   Bi   Se   O    S 
    16     7    16     1
Direct
  0.2488776600924372  0.2488776600924372  0.8549972491128888
  0.7511223399075627  0.2488776600924372  0.8549972491128888
  0.2488776600924372  0.7511223399075627  0.8549972491128888
  0.7511223399075627  0.7511223399075627  0.8549972491128888
  0.0000000000000000  1.0000000000000000  0.6459880997815687
  0.5000000000000000  1.0000000000000000  0.6467977974165786
  0.0000000000000000  0.5000000000000000  0.6467977974165786
  0.5000000000000000  0.5000000000000000  0.6477046103616351
  0.0000000000000000  0.0000000000000000  0.3540119002184315
  0.5000000000000000  1.0000000000000000  0.3532022025834214
  0.0000000000000000  0.5000000000000000  0.3532022025834214
  0.5000000000000000  0.5000000000000000  0.3522953896383649
  0.2488776600924372  0.2488776600924372  0.1450027508871111
  0.7511223399075627  0.2488776600924372  0.1450027508871111
  0.2488776600924372  0.7511223399075627  0.1450027508871111
  0.7511223399075627  0.7511223399075627  0.1450027508871111
  0.5000000000000000  1.0000000000000000  0.0000000000000000
  0.0000000000000000  0.5000000000000000  0.0000000000000000
  0.5000000000000000  0.5000000000000000  0.0000000000000000
  0.2502120322133404  0.2502120322133404  0.5000000000000000
  0.7497879677866596  0.2502120322133404  0.5000000000000000
  0.2502120322133404  0.7497879677866596  0.5000000000000000
  0.7497879677866596  0.7497879677866596  0.5000000000000000
  0.0000000000000000  0.2495071782515645  0.7504366104606445
  0.5000000000000000  0.2496420764757278  0.7514271117669720
  0.0000000000000000  0.7504928217484356  0.7504366104606445
  0.5000000000000000  0.7503579235242721  0.7514271117669720
  0.2495071782515645  0.0000000000000000  0.7504366104606445
  0.7504928217484356  0.0000000000000000  0.7504366104606445
  0.2496420764757278  0.5000000000000000  0.7514271117669720
  0.7503579235242721  0.5000000000000000  0.7514271117669720
  0.2495071782515645  0.0000000000000000  0.2495633895393556
  0.7504928217484356  1.0000000000000000  0.2495633895393556
  0.2496420764757278  0.5000000000000000  0.2485728882330279
  0.7503579235242721  0.5000000000000000  0.2485728882330279
  0.0000000000000000  0.2495071782515645  0.2495633895393556
  0.5000000000000000  0.2496420764757278  0.2485728882330279
  0.0000000000000000  0.7504928217484356  0.2495633895393556
  0.5000000000000000  0.7503579235242721  0.2485728882330279
  0.0000000000000000  1.0000000000000000  0.0000000000000000
 
  0.00000000E+00  0.00000000E+00  0.00000000E+00
  0.00000000E+00  0.00000000E+00  0.00000000E+00
  0.00000000E+00  0.00000000E+00  0.00000000E+00
  0.00000000E+00  0.00000000E+00  0.00000000E+00
  0.00000000E+00  0.00000000E+00  0.00000000E+00
  0.00000000E+00  0.00000000E+00  0.00000000E+00
  0.00000000E+00  0.00000000E+00  0.00000000E+00
  0.00000000E+00  0.00000000E+00  0.00000000E+00
  0.00000000E+00  0.00000000E+00  0.00000000E+00
  0.00000000E+00  0.00000000E+00  0.00000000E+00
  0.00000000E+00  0.00000000E+00  0.00000000E+00
  0.00000000E+00  0.00000000E+00  0.00000000E+00
  0.00000000E+00  0.00000000E+00  0.00000000E+00
  0.00000000E+00  0.00000000E+00  0.00000000E+00
  0.00000000E+00  0.00000000E+00  0.00000000E+00
  0.00000000E+00  0.00000000E+00  0.00000000E+00
  0.00000000E+00  0.00000000E+00  0.00000000E+00
  0.00000000E+00  0.00000000E+00  0.00000000E+00
  0.00000000E+00  0.00000000E+00  0.00000000E+00
  0.00000000E+00  0.00000000E+00  0.00000000E+00
  0.00000000E+00  0.00000000E+00  0.00000000E+00
  0.00000000E+00  0.00000000E+00  0.00000000E+00
  0.00000000E+00  0.00000000E+00  0.00000000E+00
  0.00000000E+00  0.00000000E+00  0.00000000E+00
  0.00000000E+00  0.00000000E+00  0.00000000E+00
  0.00000000E+00  0.00000000E+00  0.00000000E+00
  0.00000000E+00  0.00000000E+00  0.00000000E+00
  0.00000000E+00  0.00000000E+00  0.00000000E+00
  0.00000000E+00  0.00000000E+00  0.00000000E+00
  0.00000000E+00  0.00000000E+00  0.00000000E+00
  0.00000000E+00  0.00000000E+00  0.00000000E+00
  0.00000000E+00  0.00000000E+00  0.00000000E+00
  0.00000000E+00  0.00000000E+00  0.00000000E+00
  0.00000000E+00  0.00000000E+00  0.00000000E+00
  0.00000000E+00  0.00000000E+00  0.00000000E+00
  0.00000000E+00  0.00000000E+00  0.00000000E+00
  0.00000000E+00  0.00000000E+00  0.00000000E+00
  0.00000000E+00  0.00000000E+00  0.00000000E+00
  0.00000000E+00  0.00000000E+00  0.00000000E+00
  0.00000000E+00  0.00000000E+00  0.00000000E+00
