generated by phonopy                    
  0.995000000000000     
     7.8401590486790447    0.0000000000000000    0.0000000000000000
     0.0000000000000000    7.8401590486790447    0.0000000000000000
     0.0000000000000000    0.0000000000000000   12.3727018063995295
   Bi   Se   O    S 
    16     7    16     1
Direct
  0.2488774971368886  0.2488774971368886  0.8549973094976039
  0.7511225028631113  0.2488774971368886  0.8549973094976039
  0.2488774971368886  0.7511225028631113  0.8549973094976039
  0.7511225028631113  0.7511225028631113  0.8549973094976039
  0.0000000000000000  0.0000000000000000  0.6459876625727794
  0.5000000000000000  0.0000000000000000  0.6467977406440203
  0.0000000000000000  0.5000000000000000  0.6467977406440203
  0.5000000000000000  0.5000000000000000  0.6477049365352645
  0.0000000000000000  0.0000000000000000  0.3540123374272207
  0.5000000000000000  0.0000000000000000  0.3532022593559797
  0.0000000000000000  0.5000000000000000  0.3532022593559797
  0.5000000000000000  0.5000000000000000  0.3522950634647357
  0.2488774971368886  0.2488774971368886  0.1450026905023962
  0.7511225028631113  0.2488774971368886  0.1450026905023962
  0.2488774971368886  0.7511225028631113  0.1450026905023962
  0.7511225028631113  0.7511225028631113  0.1450026905023962
  0.5000000000000000  0.0000000000000000  0.0000000000000000
  0.0000000000000000  0.5000000000000000  0.0000000000000000
  0.5000000000000000  0.5000000000000000  0.0000000000000000
  0.2502112510450888  0.2502112510450888  0.5000000000000000
  0.7497887489549110  0.2502112510450888  0.5000000000000000
  0.2502112510450888  0.7497887489549110  0.5000000000000000
  0.7497887489549110  0.7497887489549110  0.5000000000000000
  0.0000000000000000  0.2495073172506644  0.7504365445339927
  0.5000000000000000  0.2496422096072925  0.7514271815545187
  0.0000000000000000  0.7504926827493356  0.7504365445339927
  0.5000000000000000  0.7503577903927073  0.7514271815545187
  0.2495073172506644  0.0000000000000000  0.7504365445339927
  0.7504926827493356  0.0000000000000000  0.7504365445339927
  0.2496422096072925  0.5000000000000000  0.7514271815545187
  0.7503577903927073  0.5000000000000000  0.7514271815545187
  0.2495073172506644  0.0000000000000000  0.2495634554660075
  0.7504926827493356  0.0000000000000000  0.2495634554660075
  0.2496422096072925  0.5000000000000000  0.2485728184454813
  0.7503577903927073  0.5000000000000000  0.2485728184454813
  0.0000000000000000  0.2495073172506644  0.2495634554660075
  0.5000000000000000  0.2496422096072925  0.2485728184454813
  0.0000000000000000  0.7504926827493356  0.2495634554660075
  0.5000000000000000  0.7503577903927073  0.2485728184454813
  0.0000000000000000  0.0000000000000000  0.0000000000000000
 
  0.00000000E+00  0.00000000E+00  0.00000000E+00
  0.00000000E+00  0.00000000E+00  0.00000000E+00
  0.00000000E+00  0.00000000E+00  0.00000000E+00
  0.00000000E+00  0.00000000E+00  0.00000000E+00
  0.00000000E+00  0.00000000E+00  0.00000000E+00
  0.00000000E+00  0.00000000E+00  0.00000000E+00
  0.00000000E+00  0.00000000E+00  0.00000000E+00
  0.00000000E+00  0.00000000E+00  0.00000000E+00
  0.00000000E+00  0.00000000E+00  0.00000000E+00
  0.00000000E+00  0.00000000E+00  0.00000000E+00
  0.00000000E+00  0.00000000E+00  0.00000000E+00
  0.00000000E+00  0.00000000E+00  0.00000000E+00
  0.00000000E+00  0.00000000E+00  0.00000000E+00
  0.00000000E+00  0.00000000E+00  0.00000000E+00
  0.00000000E+00  0.00000000E+00  0.00000000E+00
  0.00000000E+00  0.00000000E+00  0.00000000E+00
  0.00000000E+00  0.00000000E+00  0.00000000E+00
  0.00000000E+00  0.00000000E+00  0.00000000E+00
  0.00000000E+00  0.00000000E+00  0.00000000E+00
  0.00000000E+00  0.00000000E+00  0.00000000E+00
  0.00000000E+00  0.00000000E+00  0.00000000E+00
  0.00000000E+00  0.00000000E+00  0.00000000E+00
  0.00000000E+00  0.00000000E+00  0.00000000E+00
  0.00000000E+00  0.00000000E+00  0.00000000E+00
  0.00000000E+00  0.00000000E+00  0.00000000E+00
  0.00000000E+00  0.00000000E+00  0.00000000E+00
  0.00000000E+00  0.00000000E+00  0.00000000E+00
  0.00000000E+00  0.00000000E+00  0.00000000E+00
  0.00000000E+00  0.00000000E+00  0.00000000E+00
  0.00000000E+00  0.00000000E+00  0.00000000E+00
  0.00000000E+00  0.00000000E+00  0.00000000E+00
  0.00000000E+00  0.00000000E+00  0.00000000E+00
  0.00000000E+00  0.00000000E+00  0.00000000E+00
  0.00000000E+00  0.00000000E+00  0.00000000E+00
  0.00000000E+00  0.00000000E+00  0.00000000E+00
  0.00000000E+00  0.00000000E+00  0.00000000E+00
  0.00000000E+00  0.00000000E+00  0.00000000E+00
  0.00000000E+00  0.00000000E+00  0.00000000E+00
  0.00000000E+00  0.00000000E+00  0.00000000E+00
  0.00000000E+00  0.00000000E+00  0.00000000E+00
