generated by phonopy                    
   1.01000000000000     
     7.8401590486790473    0.0000000000000000    0.0000000000000000
     0.0000000000000000    7.8401590486790473    0.0000000000000000
     0.0000000000000000    0.0000000000000000   12.3727018063995349
   Bi   Se   O    S 
    16     7    16     1
Direct
  0.2489664788162075  0.2489664788162075  0.8528201781604239
  0.7510335211837924  0.2489664788162075  0.8528201781604239
  0.2489664788162075  0.7510335211837924  0.8528201781604239
  0.7510335211837924  0.7510335211837924  0.8528201781604239
  0.0000000000000000  1.0000000000000000  0.6481725298981083
  0.5000000000000000  0.0000000000000000  0.6489800257432560
  0.0000000000000000  0.5000000000000000  0.6489800257432560
  0.5000000000000000  0.5000000000000000  0.6498974792580053
  0.0000000000000000  0.0000000000000000  0.3518274701018917
  0.5000000000000000  1.0000000000000000  0.3510199742567440
  0.0000000000000000  0.5000000000000000  0.3510199742567440
  0.5000000000000000  0.5000000000000000  0.3501025207419947
  0.2489664788162075  0.2489664788162075  0.1471798218395760
  0.7510335211837924  0.2489664788162075  0.1471798218395760
  0.2489664788162075  0.7510335211837924  0.1471798218395760
  0.7510335211837924  0.7510335211837924  0.1471798218395760
  0.5000000000000000  0.0000000000000000  1.0000000000000000
  0.0000000000000000  0.5000000000000000  1.0000000000000000
  0.5000000000000000  0.5000000000000000  1.0000000000000000
  0.2499371528594805  0.2499371528594805  0.5000000000000000
  0.7500628471405195  0.2499371528594805  0.5000000000000000
  0.2499371528594805  0.7500628471405195  0.5000000000000000
  0.7500628471405195  0.7500628471405195  0.5000000000000000
  0.0000000000000000  0.2496005954299030  0.7505473319670005
  0.5000000000000000  0.2497370098973149  0.7513236005916620
  0.0000000000000000  0.7503994045700970  0.7505473319670005
  0.5000000000000000  0.7502629901026850  0.7513236005916620
  0.2496005954299030  1.0000000000000000  0.7505473319670005
  0.7503994045700970  1.0000000000000000  0.7505473319670005
  0.2497370098973149  0.5000000000000000  0.7513236005916620
  0.7502629901026850  0.5000000000000000  0.7513236005916620
  0.2496005954299030  0.0000000000000000  0.2494526680329994
  0.7503994045700970  1.0000000000000000  0.2494526680329994
  0.2497370098973149  0.5000000000000000  0.2486763994083379
  0.7502629901026850  0.5000000000000000  0.2486763994083379
  0.0000000000000000  0.2496005954299030  0.2494526680329994
  0.5000000000000000  0.2497370098973149  0.2486763994083379
  0.0000000000000000  0.7503994045700970  0.2494526680329994
  0.5000000000000000  0.7502629901026850  0.2486763994083379
  0.0000000000000000  0.0000000000000000  1.0000000000000000
 
  0.00000000E+00  0.00000000E+00  0.00000000E+00
  0.00000000E+00  0.00000000E+00  0.00000000E+00
  0.00000000E+00  0.00000000E+00  0.00000000E+00
  0.00000000E+00  0.00000000E+00  0.00000000E+00
  0.00000000E+00  0.00000000E+00  0.00000000E+00
  0.00000000E+00  0.00000000E+00  0.00000000E+00
  0.00000000E+00  0.00000000E+00  0.00000000E+00
  0.00000000E+00  0.00000000E+00  0.00000000E+00
  0.00000000E+00  0.00000000E+00  0.00000000E+00
  0.00000000E+00  0.00000000E+00  0.00000000E+00
  0.00000000E+00  0.00000000E+00  0.00000000E+00
  0.00000000E+00  0.00000000E+00  0.00000000E+00
  0.00000000E+00  0.00000000E+00  0.00000000E+00
  0.00000000E+00  0.00000000E+00  0.00000000E+00
  0.00000000E+00  0.00000000E+00  0.00000000E+00
  0.00000000E+00  0.00000000E+00  0.00000000E+00
  0.00000000E+00  0.00000000E+00  0.00000000E+00
  0.00000000E+00  0.00000000E+00  0.00000000E+00
  0.00000000E+00  0.00000000E+00  0.00000000E+00
  0.00000000E+00  0.00000000E+00  0.00000000E+00
  0.00000000E+00  0.00000000E+00  0.00000000E+00
  0.00000000E+00  0.00000000E+00  0.00000000E+00
  0.00000000E+00  0.00000000E+00  0.00000000E+00
  0.00000000E+00  0.00000000E+00  0.00000000E+00
  0.00000000E+00  0.00000000E+00  0.00000000E+00
  0.00000000E+00  0.00000000E+00  0.00000000E+00
  0.00000000E+00  0.00000000E+00  0.00000000E+00
  0.00000000E+00  0.00000000E+00  0.00000000E+00
  0.00000000E+00  0.00000000E+00  0.00000000E+00
  0.00000000E+00  0.00000000E+00  0.00000000E+00
  0.00000000E+00  0.00000000E+00  0.00000000E+00
  0.00000000E+00  0.00000000E+00  0.00000000E+00
  0.00000000E+00  0.00000000E+00  0.00000000E+00
  0.00000000E+00  0.00000000E+00  0.00000000E+00
  0.00000000E+00  0.00000000E+00  0.00000000E+00
  0.00000000E+00  0.00000000E+00  0.00000000E+00
  0.00000000E+00  0.00000000E+00  0.00000000E+00
  0.00000000E+00  0.00000000E+00  0.00000000E+00
  0.00000000E+00  0.00000000E+00  0.00000000E+00
  0.00000000E+00  0.00000000E+00  0.00000000E+00
