generated by phonopy                    
   1.01000000000000     
     7.8401590486790473    0.0000000000000000    0.0000000000000000
     0.0000000000000000    7.8401590486790473    0.0000000000000000
     0.0000000000000000    0.0000000000000000   12.3727018063995349
   Bi   Se   O    S 
    16     7    16     1
Direct
  0.2489665432718068  0.2489665432718068  0.8528202050854850
  0.7510334567281930  0.2489665432718068  0.8528202050854850
  0.2489665432718068  0.7510334567281930  0.8528202050854850
  0.7510334567281930  0.7510334567281930  0.8528202050854850
  0.0000000000000000  0.0000000000000000  0.6481725125752822
  0.5000000000000000  0.0000000000000000  0.6489800134449734
  0.0000000000000000  0.5000000000000000  0.6489800134449734
  0.5000000000000000  0.5000000000000000  0.6498974374899236
  0.0000000000000000  0.0000000000000000  0.3518274874247181
  0.5000000000000000  0.0000000000000000  0.3510199865550267
  0.0000000000000000  0.5000000000000000  0.3510199865550267
  0.5000000000000000  0.5000000000000000  0.3501025625100758
  0.2489665432718068  0.2489665432718068  0.1471797949145149
  0.7510334567281930  0.2489665432718068  0.1471797949145149
  0.2489665432718068  0.7510334567281930  0.1471797949145149
  0.7510334567281930  0.7510334567281930  0.1471797949145149
  0.5000000000000000  0.0000000000000000  0.0000000000000000
  0.0000000000000000  0.5000000000000000  0.0000000000000000
  0.5000000000000000  0.5000000000000000  0.0000000000000000
  0.2499371614116443  0.2499371614116443  0.5000000000000000
  0.7500628385883561  0.2499371614116443  0.5000000000000000
  0.2499371614116443  0.7500628385883561  0.5000000000000000
  0.7500628385883561  0.7500628385883561  0.5000000000000000
  0.0000000000000000  0.2496006608394996  0.7505473341093249
  0.5000000000000000  0.2497370482407892  0.7513235930134694
  0.0000000000000000  0.7503993391605004  0.7505473341093249
  0.5000000000000000  0.7502629517592108  0.7513235930134694
  0.2496006608394996  0.0000000000000000  0.7505473341093249
  0.7503993391605004  0.0000000000000000  0.7505473341093249
  0.2497370482407892  0.5000000000000000  0.7513235930134694
  0.7502629517592108  0.5000000000000000  0.7513235930134694
  0.2496006608394996  0.0000000000000000  0.2494526658906750
  0.7503993391605004  0.0000000000000000  0.2494526658906750
  0.2497370482407892  0.5000000000000000  0.2486764069865304
  0.7502629517592108  0.5000000000000000  0.2486764069865304
  0.0000000000000000  0.2496006608394996  0.2494526658906750
  0.5000000000000000  0.2497370482407892  0.2486764069865304
  0.0000000000000000  0.7503993391605004  0.2494526658906750
  0.5000000000000000  0.7502629517592108  0.2486764069865304
  0.0000000000000000  0.0000000000000000  0.0000000000000000
 
  0.00000000E+00  0.00000000E+00  0.00000000E+00
  0.00000000E+00  0.00000000E+00  0.00000000E+00
  0.00000000E+00  0.00000000E+00  0.00000000E+00
  0.00000000E+00  0.00000000E+00  0.00000000E+00
  0.00000000E+00  0.00000000E+00  0.00000000E+00
  0.00000000E+00  0.00000000E+00  0.00000000E+00
  0.00000000E+00  0.00000000E+00  0.00000000E+00
  0.00000000E+00  0.00000000E+00  0.00000000E+00
  0.00000000E+00  0.00000000E+00  0.00000000E+00
  0.00000000E+00  0.00000000E+00  0.00000000E+00
  0.00000000E+00  0.00000000E+00  0.00000000E+00
  0.00000000E+00  0.00000000E+00  0.00000000E+00
  0.00000000E+00  0.00000000E+00  0.00000000E+00
  0.00000000E+00  0.00000000E+00  0.00000000E+00
  0.00000000E+00  0.00000000E+00  0.00000000E+00
  0.00000000E+00  0.00000000E+00  0.00000000E+00
  0.00000000E+00  0.00000000E+00  0.00000000E+00
  0.00000000E+00  0.00000000E+00  0.00000000E+00
  0.00000000E+00  0.00000000E+00  0.00000000E+00
  0.00000000E+00  0.00000000E+00  0.00000000E+00
  0.00000000E+00  0.00000000E+00  0.00000000E+00
  0.00000000E+00  0.00000000E+00  0.00000000E+00
  0.00000000E+00  0.00000000E+00  0.00000000E+00
  0.00000000E+00  0.00000000E+00  0.00000000E+00
  0.00000000E+00  0.00000000E+00  0.00000000E+00
  0.00000000E+00  0.00000000E+00  0.00000000E+00
  0.00000000E+00  0.00000000E+00  0.00000000E+00
  0.00000000E+00  0.00000000E+00  0.00000000E+00
  0.00000000E+00  0.00000000E+00  0.00000000E+00
  0.00000000E+00  0.00000000E+00  0.00000000E+00
  0.00000000E+00  0.00000000E+00  0.00000000E+00
  0.00000000E+00  0.00000000E+00  0.00000000E+00
  0.00000000E+00  0.00000000E+00  0.00000000E+00
  0.00000000E+00  0.00000000E+00  0.00000000E+00
  0.00000000E+00  0.00000000E+00  0.00000000E+00
  0.00000000E+00  0.00000000E+00  0.00000000E+00
  0.00000000E+00  0.00000000E+00  0.00000000E+00
  0.00000000E+00  0.00000000E+00  0.00000000E+00
  0.00000000E+00  0.00000000E+00  0.00000000E+00
  0.00000000E+00  0.00000000E+00  0.00000000E+00
