generated by phonopy                    
   1.00500000000000     
     7.8401590486790544    0.0000000000000000    0.0000000000000000
     0.0000000000000000    7.8401590486790544    0.0000000000000000
     0.0000000000000000    0.0000000000000000   12.3727018063995349
   Bi   Se   O    S 
    16     7    16     1
Direct
  0.2489407616413560  0.2489407616413560  0.8535554914309805
  0.7510592383586440  0.2489407616413560  0.8535554914309805
  0.2489407616413560  0.7510592383586440  0.8535554914309805
  0.7510592383586440  0.7510592383586440  0.8535554914309805
  1.0000000000000000  1.0000000000000000  0.6474475339097489
  0.5000000000000000  1.0000000000000000  0.6482447621900863
  1.0000000000000000  0.5000000000000000  0.6482447621900863
  0.5000000000000000  0.5000000000000000  0.6491479025389337
  1.0000000000000000  0.0000000000000000  0.3525524660902512
  0.5000000000000000  0.0000000000000000  0.3517552378099208
  1.0000000000000000  0.5000000000000000  0.3517552378099208
  0.5000000000000000  0.5000000000000000  0.3508520974610663
  0.2489407616413560  0.2489407616413560  0.1464445085690194
  0.7510592383586440  0.2489407616413560  0.1464445085690194
  0.2489407616413560  0.7510592383586440  0.1464445085690194
  0.7510592383586440  0.7510592383586440  0.1464445085690194
  0.5000000000000000  1.0000000000000000  0.0000000000000000
  1.0000000000000000  0.5000000000000000  0.0000000000000000
  0.5000000000000000  0.5000000000000000  0.0000000000000000
  0.2500486538114153  0.2500486538114153  0.5000000000000000
  0.7499513461885846  0.2500486538114153  0.5000000000000000
  0.2500486538114153  0.7499513461885846  0.5000000000000000
  0.7499513461885846  0.7499513461885846  0.5000000000000000
  1.0000000000000000  0.2495654656926138  0.7505102787952467
  0.5000000000000000  0.2497012271966905  0.7513597283825560
  1.0000000000000000  0.7504345343073862  0.7505102787952467
  0.5000000000000000  0.7502987728033096  0.7513597283825560
  0.2495654656926138  1.0000000000000000  0.7505102787952467
  0.7504345343073862  0.0000000000000000  0.7505102787952467
  0.2497012271966905  0.5000000000000000  0.7513597283825560
  0.7502987728033096  0.5000000000000000  0.7513597283825560
  0.2495654656926138  0.0000000000000000  0.2494897212047534
  0.7504345343073862  1.0000000000000000  0.2494897212047534
  0.2497012271966905  0.5000000000000000  0.2486402716174440
  0.7502987728033096  0.5000000000000000  0.2486402716174440
  1.0000000000000000  0.2495654656926138  0.2494897212047534
  0.5000000000000000  0.2497012271966905  0.2486402716174440
  1.0000000000000000  0.7504345343073862  0.2494897212047534
  0.5000000000000000  0.7502987728033096  0.2486402716174440
  1.0000000000000000  1.0000000000000000  0.0000000000000000
 
  0.00000000E+00  0.00000000E+00  0.00000000E+00
  0.00000000E+00  0.00000000E+00  0.00000000E+00
  0.00000000E+00  0.00000000E+00  0.00000000E+00
  0.00000000E+00  0.00000000E+00  0.00000000E+00
  0.00000000E+00  0.00000000E+00  0.00000000E+00
  0.00000000E+00  0.00000000E+00  0.00000000E+00
  0.00000000E+00  0.00000000E+00  0.00000000E+00
  0.00000000E+00  0.00000000E+00  0.00000000E+00
  0.00000000E+00  0.00000000E+00  0.00000000E+00
  0.00000000E+00  0.00000000E+00  0.00000000E+00
  0.00000000E+00  0.00000000E+00  0.00000000E+00
  0.00000000E+00  0.00000000E+00  0.00000000E+00
  0.00000000E+00  0.00000000E+00  0.00000000E+00
  0.00000000E+00  0.00000000E+00  0.00000000E+00
  0.00000000E+00  0.00000000E+00  0.00000000E+00
  0.00000000E+00  0.00000000E+00  0.00000000E+00
  0.00000000E+00  0.00000000E+00  0.00000000E+00
  0.00000000E+00  0.00000000E+00  0.00000000E+00
  0.00000000E+00  0.00000000E+00  0.00000000E+00
  0.00000000E+00  0.00000000E+00  0.00000000E+00
  0.00000000E+00  0.00000000E+00  0.00000000E+00
  0.00000000E+00  0.00000000E+00  0.00000000E+00
  0.00000000E+00  0.00000000E+00  0.00000000E+00
  0.00000000E+00  0.00000000E+00  0.00000000E+00
  0.00000000E+00  0.00000000E+00  0.00000000E+00
  0.00000000E+00  0.00000000E+00  0.00000000E+00
  0.00000000E+00  0.00000000E+00  0.00000000E+00
  0.00000000E+00  0.00000000E+00  0.00000000E+00
  0.00000000E+00  0.00000000E+00  0.00000000E+00
  0.00000000E+00  0.00000000E+00  0.00000000E+00
  0.00000000E+00  0.00000000E+00  0.00000000E+00
  0.00000000E+00  0.00000000E+00  0.00000000E+00
  0.00000000E+00  0.00000000E+00  0.00000000E+00
  0.00000000E+00  0.00000000E+00  0.00000000E+00
  0.00000000E+00  0.00000000E+00  0.00000000E+00
  0.00000000E+00  0.00000000E+00  0.00000000E+00
  0.00000000E+00  0.00000000E+00  0.00000000E+00
  0.00000000E+00  0.00000000E+00  0.00000000E+00
  0.00000000E+00  0.00000000E+00  0.00000000E+00
  0.00000000E+00  0.00000000E+00  0.00000000E+00
