generated by phonopy                    
   1.00500000000000     
     7.8401590486790536    0.0000000000000000    0.0000000000000000
     0.0000000000000000    7.8401590486790536    0.0000000000000000
     0.0000000000000000    0.0000000000000000   12.3727018063995349
   Bi   Se   O    S 
    16     7    16     1
Direct
  0.2489407718699425  0.2489407718699425  0.8535554857398827
  0.7510592281300578  0.2489407718699425  0.8535554857398827
  0.2489407718699425  0.7510592281300578  0.8535554857398827
  0.7510592281300578  0.7510592281300578  0.8535554857398827
  0.0000000000000000  0.0000000000000000  0.6474475550462128
  0.5000000000000000  0.0000000000000000  0.6482447564126538
  0.0000000000000000  0.5000000000000000  0.6482447564126538
  0.5000000000000000  0.5000000000000000  0.6491478706406519
  0.0000000000000000  0.0000000000000000  0.3525524449537871
  0.5000000000000000  0.0000000000000000  0.3517552435873533
  0.0000000000000000  0.5000000000000000  0.3517552435873533
  0.5000000000000000  0.5000000000000000  0.3508521293593481
  0.2489407718699425  0.2489407718699425  0.1464445142601172
  0.7510592281300578  0.2489407718699425  0.1464445142601172
  0.2489407718699425  0.7510592281300578  0.1464445142601172
  0.7510592281300578  0.7510592281300578  0.1464445142601172
  0.5000000000000000  0.0000000000000000  0.0000000000000000
  0.0000000000000000  0.5000000000000000  0.0000000000000000
  0.5000000000000000  0.5000000000000000  0.0000000000000000
  0.2500486929337393  0.2500486929337393  0.5000000000000000
  0.7499513070662609  0.2500486929337393  0.5000000000000000
  0.2500486929337393  0.7499513070662609  0.5000000000000000
  0.7499513070662609  0.7499513070662609  0.5000000000000000
  0.0000000000000000  0.2495654608036305  0.7505102697052640
  0.5000000000000000  0.2497012219503906  0.7513597250635328
  0.0000000000000000  0.7504345391963693  0.7505102697052640
  0.5000000000000000  0.7502987780496093  0.7513597250635328
  0.2495654608036305  0.0000000000000000  0.7505102697052640
  0.7504345391963693  0.0000000000000000  0.7505102697052640
  0.2497012219503906  0.5000000000000000  0.7513597250635328
  0.7502987780496093  0.5000000000000000  0.7513597250635328
  0.2495654608036305  0.0000000000000000  0.2494897302947358
  0.7504345391963693  0.0000000000000000  0.2494897302947358
  0.2497012219503906  0.5000000000000000  0.2486402749364671
  0.7502987780496093  0.5000000000000000  0.2486402749364671
  0.0000000000000000  0.2495654608036305  0.2494897302947358
  0.5000000000000000  0.2497012219503906  0.2486402749364671
  0.0000000000000000  0.7504345391963693  0.2494897302947358
  0.5000000000000000  0.7502987780496093  0.2486402749364671
  0.0000000000000000  0.0000000000000000  0.0000000000000000
 
  0.00000000E+00  0.00000000E+00  0.00000000E+00
  0.00000000E+00  0.00000000E+00  0.00000000E+00
  0.00000000E+00  0.00000000E+00  0.00000000E+00
  0.00000000E+00  0.00000000E+00  0.00000000E+00
  0.00000000E+00  0.00000000E+00  0.00000000E+00
  0.00000000E+00  0.00000000E+00  0.00000000E+00
  0.00000000E+00  0.00000000E+00  0.00000000E+00
  0.00000000E+00  0.00000000E+00  0.00000000E+00
  0.00000000E+00  0.00000000E+00  0.00000000E+00
  0.00000000E+00  0.00000000E+00  0.00000000E+00
  0.00000000E+00  0.00000000E+00  0.00000000E+00
  0.00000000E+00  0.00000000E+00  0.00000000E+00
  0.00000000E+00  0.00000000E+00  0.00000000E+00
  0.00000000E+00  0.00000000E+00  0.00000000E+00
  0.00000000E+00  0.00000000E+00  0.00000000E+00
  0.00000000E+00  0.00000000E+00  0.00000000E+00
  0.00000000E+00  0.00000000E+00  0.00000000E+00
  0.00000000E+00  0.00000000E+00  0.00000000E+00
  0.00000000E+00  0.00000000E+00  0.00000000E+00
  0.00000000E+00  0.00000000E+00  0.00000000E+00
  0.00000000E+00  0.00000000E+00  0.00000000E+00
  0.00000000E+00  0.00000000E+00  0.00000000E+00
  0.00000000E+00  0.00000000E+00  0.00000000E+00
  0.00000000E+00  0.00000000E+00  0.00000000E+00
  0.00000000E+00  0.00000000E+00  0.00000000E+00
  0.00000000E+00  0.00000000E+00  0.00000000E+00
  0.00000000E+00  0.00000000E+00  0.00000000E+00
  0.00000000E+00  0.00000000E+00  0.00000000E+00
  0.00000000E+00  0.00000000E+00  0.00000000E+00
  0.00000000E+00  0.00000000E+00  0.00000000E+00
  0.00000000E+00  0.00000000E+00  0.00000000E+00
  0.00000000E+00  0.00000000E+00  0.00000000E+00
  0.00000000E+00  0.00000000E+00  0.00000000E+00
  0.00000000E+00  0.00000000E+00  0.00000000E+00
  0.00000000E+00  0.00000000E+00  0.00000000E+00
  0.00000000E+00  0.00000000E+00  0.00000000E+00
  0.00000000E+00  0.00000000E+00  0.00000000E+00
  0.00000000E+00  0.00000000E+00  0.00000000E+00
  0.00000000E+00  0.00000000E+00  0.00000000E+00
  0.00000000E+00  0.00000000E+00  0.00000000E+00
