generated by phonopy                    
   1.03500000000000     
     7.8401590486790464    0.0000000000000000    0.0000000000000000
     0.0000000000000000    7.8401590486790464    0.0000000000000000
     0.0000000000000000    0.0000000000000000   12.3727018063995349
   Bi   Se   O    S 
    16     7    16     1
Direct
  0.2484794448977454  0.2484794448977454  0.8491892622673041
  0.7515205551022545  0.2484794448977454  0.8491892622673041
  0.2484794448977454  0.7515205551022545  0.8491892622673041
  0.7515205551022545  0.7515205551022545  0.8491892622673041
  0.0000000000000000  0.0000000000000000  0.6499252963288277
  0.5000000000000000  0.0000000000000000  0.6530658865637836
  0.0000000000000000  0.5000000000000000  0.6530658865637836
  0.5000000000000000  0.5000000000000000  0.6558571731540966
  0.0000000000000000  0.0000000000000000  0.3500747036711794
  0.5000000000000000  0.0000000000000000  0.3469341134362163
  0.0000000000000000  0.5000000000000000  0.3469341134362163
  0.5000000000000000  0.5000000000000000  0.3441428268459035
  0.2484794448977454  0.2484794448977454  0.1508107377326960
  0.7515205551022545  0.2484794448977454  0.1508107377326960
  0.2484794448977454  0.7515205551022545  0.1508107377326960
  0.7515205551022545  0.7515205551022545  0.1508107377326960
  0.5000000000000000  0.0000000000000000  0.0000000000000000
  0.0000000000000000  0.5000000000000000  0.0000000000000000
  0.5000000000000000  0.5000000000000000  0.0000000000000000
  0.2455315601273751  0.2455315601273751  0.5000000000000000
  0.7544684398726248  0.2455315601273751  0.5000000000000000
  0.2455315601273751  0.7544684398726248  0.5000000000000000
  0.7544684398726248  0.7544684398726248  0.5000000000000000
  0.0000000000000000  0.2506931289144627  0.7511247214075349
  0.5000000000000000  0.2506988796154442  0.7510436962782577
  0.0000000000000000  0.7493068710855374  0.7511247214075349
  0.5000000000000000  0.7493011203845558  0.7510436962782577
  0.2506931289144627  0.0000000000000000  0.7511247214075349
  0.7493068710855374  0.0000000000000000  0.7511247214075349
  0.2506988796154442  0.5000000000000000  0.7510436962782577
  0.7493011203845558  0.5000000000000000  0.7510436962782577
  0.2506931289144627  0.0000000000000000  0.2488752785924650
  0.7493068710855374  0.0000000000000000  0.2488752785924650
  0.2506988796154442  0.5000000000000000  0.2489563037217422
  0.7493011203845558  0.5000000000000000  0.2489563037217422
  0.0000000000000000  0.2506931289144627  0.2488752785924650
  0.5000000000000000  0.2506988796154442  0.2489563037217422
  0.0000000000000000  0.7493068710855374  0.2488752785924650
  0.5000000000000000  0.7493011203845558  0.2489563037217422
  0.0000000000000000  0.0000000000000000  0.0000000000000000
 
  0.00000000E+00  0.00000000E+00  0.00000000E+00
  0.00000000E+00  0.00000000E+00  0.00000000E+00
  0.00000000E+00  0.00000000E+00  0.00000000E+00
  0.00000000E+00  0.00000000E+00  0.00000000E+00
  0.00000000E+00  0.00000000E+00  0.00000000E+00
  0.00000000E+00  0.00000000E+00  0.00000000E+00
  0.00000000E+00  0.00000000E+00  0.00000000E+00
  0.00000000E+00  0.00000000E+00  0.00000000E+00
  0.00000000E+00  0.00000000E+00  0.00000000E+00
  0.00000000E+00  0.00000000E+00  0.00000000E+00
  0.00000000E+00  0.00000000E+00  0.00000000E+00
  0.00000000E+00  0.00000000E+00  0.00000000E+00
  0.00000000E+00  0.00000000E+00  0.00000000E+00
  0.00000000E+00  0.00000000E+00  0.00000000E+00
  0.00000000E+00  0.00000000E+00  0.00000000E+00
  0.00000000E+00  0.00000000E+00  0.00000000E+00
  0.00000000E+00  0.00000000E+00  0.00000000E+00
  0.00000000E+00  0.00000000E+00  0.00000000E+00
  0.00000000E+00  0.00000000E+00  0.00000000E+00
  0.00000000E+00  0.00000000E+00  0.00000000E+00
  0.00000000E+00  0.00000000E+00  0.00000000E+00
  0.00000000E+00  0.00000000E+00  0.00000000E+00
  0.00000000E+00  0.00000000E+00  0.00000000E+00
  0.00000000E+00  0.00000000E+00  0.00000000E+00
  0.00000000E+00  0.00000000E+00  0.00000000E+00
  0.00000000E+00  0.00000000E+00  0.00000000E+00
  0.00000000E+00  0.00000000E+00  0.00000000E+00
  0.00000000E+00  0.00000000E+00  0.00000000E+00
  0.00000000E+00  0.00000000E+00  0.00000000E+00
  0.00000000E+00  0.00000000E+00  0.00000000E+00
  0.00000000E+00  0.00000000E+00  0.00000000E+00
  0.00000000E+00  0.00000000E+00  0.00000000E+00
  0.00000000E+00  0.00000000E+00  0.00000000E+00
  0.00000000E+00  0.00000000E+00  0.00000000E+00
  0.00000000E+00  0.00000000E+00  0.00000000E+00
  0.00000000E+00  0.00000000E+00  0.00000000E+00
  0.00000000E+00  0.00000000E+00  0.00000000E+00
  0.00000000E+00  0.00000000E+00  0.00000000E+00
  0.00000000E+00  0.00000000E+00  0.00000000E+00
  0.00000000E+00  0.00000000E+00  0.00000000E+00
