generated by phonopy                    
   1.03500000000000     
     7.8401590486790464    0.0000000000000000    0.0000000000000000
     0.0000000000000000    7.8401590486790464    0.0000000000000000
     0.0000000000000000    0.0000000000000000   12.3727018063995349
   Bi   Se   O    S 
    16     7    16     1
Direct
  0.2484793506853543  0.2484793506853543  0.8491891547521414
  0.7515206493146458  0.2484793506853543  0.8491891547521414
  0.2484793506853543  0.7515206493146458  0.8491891547521414
  0.7515206493146458  0.7515206493146458  0.8491891547521414
  0.0000000000000000  1.0000000000000000  0.6499253969666559
  0.5000000000000000  1.0000000000000000  0.6530660619345683
  0.0000000000000000  0.5000000000000000  0.6530660619345683
  0.5000000000000000  0.5000000000000000  0.6558573633615127
  0.0000000000000000  1.0000000000000000  0.3500746030333514
  0.5000000000000000  1.0000000000000000  0.3469339380654319
  0.0000000000000000  0.5000000000000000  0.3469339380654319
  0.5000000000000000  0.5000000000000000  0.3441426366384874
  0.2484793506853543  0.2484793506853543  0.1508108452478585
  0.7515206493146458  0.2484793506853543  0.1508108452478585
  0.2484793506853543  0.7515206493146458  0.1508108452478585
  0.7515206493146458  0.7515206493146458  0.1508108452478585
  0.5000000000000000  1.0000000000000000  1.0000000000000000
  0.0000000000000000  0.5000000000000000  1.0000000000000000
  0.5000000000000000  0.5000000000000000  1.0000000000000000
  0.2455314824869403  0.2455314824869403  0.5000000000000000
  0.7544685175130598  0.2455314824869403  0.5000000000000000
  0.2455314824869403  0.7544685175130598  0.5000000000000000
  0.7544685175130598  0.7544685175130598  0.5000000000000000
  0.0000000000000000  0.2506931585667705  0.7511247388103989
  0.5000000000000000  0.2506989069096878  0.7510437011641357
  0.0000000000000000  0.7493068414332295  0.7511247388103989
  0.5000000000000000  0.7493010930903122  0.7510437011641357
  0.2506931585667705  1.0000000000000000  0.7511247388103989
  0.7493068414332295  1.0000000000000000  0.7511247388103989
  0.2506989069096878  0.5000000000000000  0.7510437011641357
  0.7493010930903122  0.5000000000000000  0.7510437011641357
  0.2506931585667705  1.0000000000000000  0.2488752611896010
  0.7493068414332295  1.0000000000000000  0.2488752611896010
  0.2506989069096878  0.5000000000000000  0.2489562988358641
  0.7493010930903122  0.5000000000000000  0.2489562988358641
  0.0000000000000000  0.2506931585667705  0.2488752611896010
  0.5000000000000000  0.2506989069096878  0.2489562988358641
  0.0000000000000000  0.7493068414332295  0.2488752611896010
  0.5000000000000000  0.7493010930903122  0.2489562988358641
  0.0000000000000000  1.0000000000000000  1.0000000000000000
 
  0.00000000E+00  0.00000000E+00  0.00000000E+00
  0.00000000E+00  0.00000000E+00  0.00000000E+00
  0.00000000E+00  0.00000000E+00  0.00000000E+00
  0.00000000E+00  0.00000000E+00  0.00000000E+00
  0.00000000E+00  0.00000000E+00  0.00000000E+00
  0.00000000E+00  0.00000000E+00  0.00000000E+00
  0.00000000E+00  0.00000000E+00  0.00000000E+00
  0.00000000E+00  0.00000000E+00  0.00000000E+00
  0.00000000E+00  0.00000000E+00  0.00000000E+00
  0.00000000E+00  0.00000000E+00  0.00000000E+00
  0.00000000E+00  0.00000000E+00  0.00000000E+00
  0.00000000E+00  0.00000000E+00  0.00000000E+00
  0.00000000E+00  0.00000000E+00  0.00000000E+00
  0.00000000E+00  0.00000000E+00  0.00000000E+00
  0.00000000E+00  0.00000000E+00  0.00000000E+00
  0.00000000E+00  0.00000000E+00  0.00000000E+00
  0.00000000E+00  0.00000000E+00  0.00000000E+00
  0.00000000E+00  0.00000000E+00  0.00000000E+00
  0.00000000E+00  0.00000000E+00  0.00000000E+00
  0.00000000E+00  0.00000000E+00  0.00000000E+00
  0.00000000E+00  0.00000000E+00  0.00000000E+00
  0.00000000E+00  0.00000000E+00  0.00000000E+00
  0.00000000E+00  0.00000000E+00  0.00000000E+00
  0.00000000E+00  0.00000000E+00  0.00000000E+00
  0.00000000E+00  0.00000000E+00  0.00000000E+00
  0.00000000E+00  0.00000000E+00  0.00000000E+00
  0.00000000E+00  0.00000000E+00  0.00000000E+00
  0.00000000E+00  0.00000000E+00  0.00000000E+00
  0.00000000E+00  0.00000000E+00  0.00000000E+00
  0.00000000E+00  0.00000000E+00  0.00000000E+00
  0.00000000E+00  0.00000000E+00  0.00000000E+00
  0.00000000E+00  0.00000000E+00  0.00000000E+00
  0.00000000E+00  0.00000000E+00  0.00000000E+00
  0.00000000E+00  0.00000000E+00  0.00000000E+00
  0.00000000E+00  0.00000000E+00  0.00000000E+00
  0.00000000E+00  0.00000000E+00  0.00000000E+00
  0.00000000E+00  0.00000000E+00  0.00000000E+00
  0.00000000E+00  0.00000000E+00  0.00000000E+00
  0.00000000E+00  0.00000000E+00  0.00000000E+00
  0.00000000E+00  0.00000000E+00  0.00000000E+00
